
     Program PWSCF v.7.5 starts on 18Sep2026 at 21:56: 8 

     This program is part of the open-source Quantum ESPRESSO suite
     for quantum simulation of materials; please cite
         "P. Giannozzi et al., J. Phys.:Condens. Matter 21 395502 (2009);
         "P. Giannozzi et al., J. Phys.:Condens. Matter 29 465901 (2017);
         "P. Giannozzi et al., J. Chem. Phys. 152 154105 (2020);
          URL http://www.quantum-espresso.org", 
     in publications or presentations arising from this work. More details at
     http://www.quantum-espresso.org/quote

     Parallel version (MPI), running on     8 processors

     MPI processes distributed on     1 nodes
     6619 MiB available memory on the printing compute node when the environment starts

     Waiting for input...
     Reading input from standard input

     Current dimensions of program PWSCF are:
     Max number of different atomic species (ntypx) = 10
     Max number of k-points (npk) =  40000
     Max angular momentum in pseudopotentials (lmaxx) =  4
     file Ti.pbe-spn-kjpaw_psl.1.0.0.UPF: wavefunction(s)  3S 3P 3D renormalized
     file C.pbe-n-kjpaw_psl.1.0.0.UPF: wavefunction(s)  2S 2P renormalized
     file O.pbe-n-kjpaw_psl.1.0.0.UPF: wavefunction(s)  2S 2P renormalized

     R & G space division:  proc/nbgrp/npool/nimage =       8
     Subspace diagonalization in iterative solution of the eigenvalue problem:
     a serial algorithm will be used


     Parallelization info
     --------------------
     sticks:   dense  smooth     PW     G-vecs:    dense   smooth      PW
     Min         182      90     29                25240     8907    1619
     Max         183      93     30                25249     8920    1626
     Sum        1457     725    235               201941    71275   12977

     Using Slab Decomposition



     bravais-lattice index     =            0
     lattice parameter (alat)  =      11.4598  a.u.
     unit-cell volume          =    2087.5227 (a.u.)^3
     number of atoms/cell      =           10
     number of atomic types    =            3
     number of electrons       =        80.00
     number of Kohn-Sham states=           48
     kinetic-energy cutoff     =      40.0000  Ry
     charge density cutoff     =     320.0000  Ry
     scf convergence threshold =      1.0E-08
     mixing beta               =       0.7000
     number of iterations used =            8  plain     mixing
     energy convergence thresh.=      1.0E-04
     force convergence thresh. =      1.0E-03
     Exchange-correlation= SLA  PW   PBX  PBC
                           (   1   4   3   4   0   0   0)
     nstep                     =           50


     celldm(1)=  11.459809  celldm(2)=   0.000000  celldm(3)=   0.000000
     celldm(4)=   0.000000  celldm(5)=   0.000000  celldm(6)=   0.000000

     crystal axes: (cart. coord. in units of alat)
               a(1) = (   1.000000   0.000000   0.000000 )  
               a(2) = (  -0.250000   0.433013   0.000000 )  
               a(3) = (   0.000000   0.000000   3.203301 )  

     reciprocal axes: (cart. coord. in units 2 pi/alat)
               b(1) = (  1.000000  0.577350 -0.000000 )  
               b(2) = (  0.000000  2.309398  0.000000 )  
               b(3) = (  0.000000 -0.000000  0.312178 )  


     PseudoPot. # 1 for Ti read from file:
     ../pseudopotensial/Ti.pbe-spn-kjpaw_psl.1.0.0.UPF
     MD5 check sum: 01f69b0d8ba4438b2e03ac6ea4af1c0b
     Pseudo is Projector augmented-wave + core cor, Zval = 12.0
     Generated using &quot;atomic&quot; code by A. Dal Corso  v.6.2.2
     Shape of augmentation charge: PSQ
     Using radial grid of 1177 points,  6 beta functions with: 
                l(1) =   0
                l(2) =   0
                l(3) =   1
                l(4) =   1
                l(5) =   2
                l(6) =   2
     Q(r) pseudized with 0 coefficients 


     PseudoPot. # 2 for C  read from file:
     ../pseudopotensial/C.pbe-n-kjpaw_psl.1.0.0.UPF
     MD5 check sum: 5f16ad9a65e90284d1d834d4ab3b0f7d
     Pseudo is Projector augmented-wave + core cor, Zval =  4.0
     Generated using &quot;atomic&quot; code by A. Dal Corso  v.6.3
     Shape of augmentation charge: PSQ
     Using radial grid of 1073 points,  4 beta functions with: 
                l(1) =   0
                l(2) =   0
                l(3) =   1
                l(4) =   1
     Q(r) pseudized with 0 coefficients 


     PseudoPot. # 3 for O  read from file:
     ../pseudopotensial/O.pbe-n-kjpaw_psl.1.0.0.UPF
     MD5 check sum: e99d9cef9b487d1ca56f5b95ecd0fd7a
     Pseudo is Projector augmented-wave + core cor, Zval =  6.0
     Generated using &quot;atomic&quot; code by A. Dal Corso  v.6.3
     Shape of augmentation charge: PSQ
     Using radial grid of 1095 points,  4 beta functions with: 
                l(1) =   0
                l(2) =   0
                l(3) =   1
                l(4) =   1
     Q(r) pseudized with 0 coefficients 


     atomic species   valence    mass     pseudopotential
     Ti               12.00    47.86700     Ti( 1.00)
     C                 4.00    12.01100     C ( 1.00)
     O                 6.00    15.99900     O ( 1.00)

     No symmetry found



   Cartesian axes

     site n.     atom                  positions (alat units)
         1        Ti     tau(   1) = (   0.0002044   0.2888150   1.3818272  )
         2        Ti     tau(   2) = (   0.2406635   0.1389653   1.7802991  )
         3        C      tau(   3) = (   0.4981985  -0.0011481   1.5968693  )
         4        O      tau(   4) = (  -0.0177693   0.2779288   1.9425221  )
         5        O      tau(   5) = (   0.2516906   0.1452861   1.2327496  )
         6        Ti     tau(   6) = (   0.4990693   0.2881689   1.3817001  )
         7        Ti     tau(   7) = (   0.7643500   0.1527806   1.7791184  )
         8        C      tau(   8) = (   1.0026042   0.0015829   1.5903974  )
         9        O      tau(   9) = (   0.5084468   0.2943511   1.9268305  )
        10        O      tau(  10) = (   0.7491890   0.1438406   1.2341174  )

     number of k points=     6  Marzari-Vanderbilt smearing, width (Ry)=  0.0200
                       cart. coord. in units 2pi/alat
        k(    1) = (   0.0000000   0.0000000   0.0000000), wk =   0.2500000
        k(    2) = (   0.0000000   0.5773494   0.0000000), wk =   0.5000000
        k(    3) = (   0.0000000  -1.1546988   0.0000000), wk =   0.2500000
        k(    4) = (  -0.5000000  -0.2886752   0.0000000), wk =   0.2500000
        k(    5) = (  -0.5000000   0.2886742   0.0000000), wk =   0.5000000
        k(    6) = (  -0.5000000  -1.4433739   0.0000000), wk =   0.2500000

     Dense  grid:   201941 G-vectors     FFT dimensions: (  72,  36, 216)

     Smooth grid:    71275 G-vectors     FFT dimensions: (  48,  24, 150)

     Estimated max dynamical RAM per process >     104.47 MB

     Estimated total dynamical RAM >     835.74 MB

     Check: negative core charge=   -0.000006

     Initial potential from superposition of free atoms

     starting charge      79.9940, renormalised to      80.0000

     negative rho (up, down):  3.515E-03 0.000E+00
     Starting wfcs are   64 randomized atomic wfcs
     Checking if some PAW data can be deallocated... 

     total cpu time spent up to now is        1.9 secs

     Self-consistent Calculation

     iteration #  1     ecut=    40.00 Ry     beta= 0.70
     Davidson diagonalization with overlap
     ethr =  1.00E-02,  avg # of iterations =  2.0

     negative rho (up, down):  2.810E-03 0.000E+00

     total cpu time spent up to now is        4.0 secs

     total energy              =    -936.39844840 Ry
     estimated scf accuracy    <       4.76823769 Ry

     iteration #  2     ecut=    40.00 Ry     beta= 0.70
     Davidson diagonalization with overlap
     ethr =  5.96E-03,  avg # of iterations =  8.3

     negative rho (up, down):  2.682E-02 0.000E+00

     total cpu time spent up to now is        7.6 secs

     total energy              =    -928.83719610 Ry
     estimated scf accuracy    <      81.91124823 Ry

     iteration #  3     ecut=    40.00 Ry     beta= 0.70
     Davidson diagonalization with overlap
     ethr =  5.96E-03,  avg # of iterations = 10.2

     negative rho (up, down):  2.097E-02 0.000E+00

     total cpu time spent up to now is       11.7 secs

     total energy              =    -928.60579177 Ry
     estimated scf accuracy    <     245.11085499 Ry

     iteration #  4     ecut=    40.00 Ry     beta= 0.70
     Davidson diagonalization with overlap
     ethr =  5.96E-03,  avg # of iterations =  6.2

     negative rho (up, down):  6.320E-03 0.000E+00

     total cpu time spent up to now is       14.5 secs

     total energy              =    -938.80011961 Ry
     estimated scf accuracy    <       3.02267207 Ry

     iteration #  5     ecut=    40.00 Ry     beta= 0.70
     Davidson diagonalization with overlap
     ethr =  3.78E-03,  avg # of iterations =  3.0
     Minimization algorithm failed to find Fermi energy: reverting to bisection
     Possible cause: smearing is larger than the electronic band-gap.

     negative rho (up, down):  5.044E-03 0.000E+00

     total cpu time spent up to now is       16.4 secs

     total energy              =    -939.10508158 Ry
     estimated scf accuracy    <       0.65946294 Ry

     iteration #  6     ecut=    40.00 Ry     beta= 0.70
     Davidson diagonalization with overlap
     ethr =  8.24E-04,  avg # of iterations =  8.7
     Minimization algorithm failed to find Fermi energy: reverting to bisection
     Possible cause: smearing is larger than the electronic band-gap.

     negative rho (up, down):  5.062E-03 0.000E+00

     total cpu time spent up to now is       18.9 secs

     total energy              =    -939.16263916 Ry
     estimated scf accuracy    <       0.39988460 Ry

     iteration #  7     ecut=    40.00 Ry     beta= 0.70
     Davidson diagonalization with overlap
     ethr =  5.00E-04,  avg # of iterations =  1.7

     negative rho (up, down):  4.464E-03 0.000E+00

     total cpu time spent up to now is       20.7 secs

     total energy              =    -939.10646231 Ry
     estimated scf accuracy    <       0.28924196 Ry

     iteration #  8     ecut=    40.00 Ry     beta= 0.70
     Davidson diagonalization with overlap
     ethr =  3.62E-04,  avg # of iterations =  3.7

     negative rho (up, down):  4.295E-03 0.000E+00

     total cpu time spent up to now is       22.8 secs

     total energy              =    -939.11103643 Ry
     estimated scf accuracy    <       0.10218608 Ry

     iteration #  9     ecut=    40.00 Ry     beta= 0.70
     Davidson diagonalization with overlap
     ethr =  1.28E-04,  avg # of iterations = 12.0

     negative rho (up, down):  4.499E-03 0.000E+00

     total cpu time spent up to now is       27.6 secs

     total energy              =    -939.13393379 Ry
     estimated scf accuracy    <       0.05027428 Ry

     iteration # 10     ecut=    40.00 Ry     beta= 0.70
     Davidson diagonalization with overlap
     c_bands:  3 eigenvalues not converged
     ethr =  6.28E-05,  avg # of iterations =  7.5

     negative rho (up, down):  4.943E-03 0.000E+00

     total cpu time spent up to now is       29.8 secs

     total energy              =    -939.13084246 Ry
     estimated scf accuracy    <       0.03928903 Ry

     iteration # 11     ecut=    40.00 Ry     beta= 0.70
     Davidson diagonalization with overlap
     ethr =  4.91E-05,  avg # of iterations =  7.2

     negative rho (up, down):  5.117E-03 0.000E+00

     total cpu time spent up to now is       31.9 secs

     total energy              =    -939.13044553 Ry
     estimated scf accuracy    <       0.01643063 Ry

     iteration # 12     ecut=    40.00 Ry     beta= 0.70
     Davidson diagonalization with overlap
     c_bands:  1 eigenvalues not converged
     ethr =  2.05E-05,  avg # of iterations =  6.3

     negative rho (up, down):  4.775E-03 0.000E+00

     total cpu time spent up to now is       34.1 secs

     total energy              =    -939.13010183 Ry
     estimated scf accuracy    <       0.00673981 Ry

     iteration # 13     ecut=    40.00 Ry     beta= 0.70
     Davidson diagonalization with overlap
     ethr =  8.42E-06,  avg # of iterations = 10.7

     negative rho (up, down):  4.704E-03 0.000E+00

     total cpu time spent up to now is       36.9 secs

     total energy              =    -939.13088074 Ry
     estimated scf accuracy    <       0.00506543 Ry

     iteration # 14     ecut=    40.00 Ry     beta= 0.70
     Davidson diagonalization with overlap
     ethr =  6.33E-06,  avg # of iterations =  2.0

     negative rho (up, down):  4.629E-03 0.000E+00

     total cpu time spent up to now is       38.9 secs

     total energy              =    -939.13137704 Ry
     estimated scf accuracy    <       0.00018333 Ry

     iteration # 15     ecut=    40.00 Ry     beta= 0.70
     Davidson diagonalization with overlap
     ethr =  2.29E-07,  avg # of iterations = 11.7

     negative rho (up, down):  4.600E-03 0.000E+00

     total cpu time spent up to now is       42.5 secs

     total energy              =    -939.13152566 Ry
     estimated scf accuracy    <       0.00027533 Ry

     iteration # 16     ecut=    40.00 Ry     beta= 0.70
     Davidson diagonalization with overlap
     ethr =  2.29E-07,  avg # of iterations =  2.0

     negative rho (up, down):  4.582E-03 0.000E+00

     total cpu time spent up to now is       44.4 secs

     total energy              =    -939.13151504 Ry
     estimated scf accuracy    <       0.00008480 Ry

     iteration # 17     ecut=    40.00 Ry     beta= 0.70
     Davidson diagonalization with overlap
     ethr =  1.06E-07,  avg # of iterations =  5.8

     negative rho (up, down):  4.570E-03 0.000E+00

     total cpu time spent up to now is       46.6 secs

     total energy              =    -939.13152884 Ry
     estimated scf accuracy    <       0.00000608 Ry

     iteration # 18     ecut=    40.00 Ry     beta= 0.70
     Davidson diagonalization with overlap
     ethr =  7.60E-09,  avg # of iterations =  9.3

     negative rho (up, down):  4.570E-03 0.000E+00

     total cpu time spent up to now is       49.9 secs

     total energy              =    -939.13153433 Ry
     estimated scf accuracy    <       0.00001262 Ry

     iteration # 19     ecut=    40.00 Ry     beta= 0.70
     Davidson diagonalization with overlap
     ethr =  7.60E-09,  avg # of iterations =  2.3

     negative rho (up, down):  4.569E-03 0.000E+00

     total cpu time spent up to now is       52.0 secs

     total energy              =    -939.13153436 Ry
     estimated scf accuracy    <       0.00000269 Ry

     iteration # 20     ecut=    40.00 Ry     beta= 0.70
     Davidson diagonalization with overlap
     ethr =  3.36E-09,  avg # of iterations =  5.8

     negative rho (up, down):  4.569E-03 0.000E+00

     total cpu time spent up to now is       54.7 secs

     total energy              =    -939.13153512 Ry
     estimated scf accuracy    <       0.00000158 Ry

     iteration # 21     ecut=    40.00 Ry     beta= 0.70
     Davidson diagonalization with overlap
     ethr =  1.97E-09,  avg # of iterations =  2.0

     negative rho (up, down):  4.570E-03 0.000E+00

     total cpu time spent up to now is       56.6 secs

     total energy              =    -939.13153525 Ry
     estimated scf accuracy    <       0.00000020 Ry

     iteration # 22     ecut=    40.00 Ry     beta= 0.70
     Davidson diagonalization with overlap
     ethr =  2.55E-10,  avg # of iterations =  8.7

     negative rho (up, down):  4.570E-03 0.000E+00

     total cpu time spent up to now is       61.4 secs

     total energy              =    -939.13153539 Ry
     estimated scf accuracy    <       0.00000084 Ry

     iteration # 23     ecut=    40.00 Ry     beta= 0.70
     Davidson diagonalization with overlap
     ethr =  2.55E-10,  avg # of iterations =  2.0

     negative rho (up, down):  4.570E-03 0.000E+00

     total cpu time spent up to now is       63.4 secs

     total energy              =    -939.13153532 Ry
     estimated scf accuracy    <       0.00000047 Ry

     iteration # 24     ecut=    40.00 Ry     beta= 0.70
     Davidson diagonalization with overlap
     ethr =  2.55E-10,  avg # of iterations =  3.7

     negative rho (up, down):  4.570E-03 0.000E+00

     total cpu time spent up to now is       65.4 secs

     total energy              =    -939.13153532 Ry
     estimated scf accuracy    <       0.00000015 Ry

     iteration # 25     ecut=    40.00 Ry     beta= 0.70
     Davidson diagonalization with overlap
     ethr =  1.91E-10,  avg # of iterations =  5.7

     negative rho (up, down):  4.570E-03 0.000E+00

     total cpu time spent up to now is       67.5 secs

     total energy              =    -939.13153533 Ry
     estimated scf accuracy    <       0.00000004 Ry

     iteration # 26     ecut=    40.00 Ry     beta= 0.70
     Davidson diagonalization with overlap
     ethr =  5.26E-11,  avg # of iterations =  6.3

     negative rho (up, down):  4.570E-03 0.000E+00

     total cpu time spent up to now is       70.3 secs

     total energy              =    -939.13153535 Ry
     estimated scf accuracy    <       0.00000001 Ry

     iteration # 27     ecut=    40.00 Ry     beta= 0.70
     Davidson diagonalization with overlap
     ethr =  1.81E-11,  avg # of iterations =  3.0

     negative rho (up, down):  4.570E-03 0.000E+00

     total cpu time spent up to now is       72.1 secs

     total energy              =    -939.13153535 Ry
     estimated scf accuracy    <       0.00000001 Ry

     iteration # 28     ecut=    40.00 Ry     beta= 0.70
     Davidson diagonalization with overlap
     ethr =  1.33E-11,  avg # of iterations =  2.2

     negative rho (up, down):  4.570E-03 0.000E+00

     total cpu time spent up to now is       74.0 secs

     End of self-consistent calculation

          k = 0.0000 0.0000 0.0000 (  8909 PWs)   bands (ev):

   -57.6992 -57.6296 -57.3503 -57.0826 -34.2492 -34.0440 -33.9617 -33.8558
   -33.7998 -33.7486 -33.7475 -33.6079 -33.4892 -33.4002 -33.2940 -33.2133
   -18.9021 -18.4199 -18.3934 -17.6371 -11.0206  -9.9551  -6.4024  -5.8638
    -5.1914  -5.0542  -5.0472  -4.4748  -4.3968  -4.3280  -4.2779  -4.0791
    -3.7982  -3.7307  -3.1371  -1.8038  -1.5795  -0.9526  -0.2847  -0.2231
     0.2715   0.5736   0.6125   1.5253   1.7835   1.8701   2.0428   2.1898

          k = 0.0000 0.5773 0.0000 (  8890 PWs)   bands (ev):

   -57.6724 -57.6262 -57.3334 -57.0707 -34.1593 -34.0188 -33.9757 -33.9540
   -33.9257 -33.8000 -33.7467 -33.6414 -33.5853 -33.4279 -33.3717 -33.3053
   -18.6348 -18.4074 -18.2062 -17.5499 -10.7511 -10.0334  -5.6207  -5.4850
    -5.1756  -5.1194  -4.9866  -4.6813  -4.6360  -4.3582  -4.3050  -4.0336
    -3.7391  -3.5048  -3.0147  -2.6811  -2.4098  -2.2215  -1.6217  -1.0699
     0.6099   1.0282   1.6050   1.7758   2.0417   2.1768   2.4942   2.5636

          k = 0.0000-1.1547 0.0000 (  8960 PWs)   bands (ev):

   -57.6518 -57.6165 -57.3180 -57.0571 -34.2541 -34.2440 -33.9781 -33.9335
   -33.8614 -33.8456 -33.8038 -33.7334 -33.5876 -33.4179 -33.4048 -33.3082
   -18.4503 -18.3963 -18.0981 -17.4692 -10.1136  -9.8244  -6.4219  -6.3642
    -5.4030  -5.0726  -4.5430  -4.4902  -4.3976  -4.3015  -4.2351  -3.8950
    -3.8087  -3.5767  -3.4531  -2.9966  -1.8886  -1.6706  -1.5524  -1.3953
     0.2748   0.4458   1.9312   1.9740   2.1839   2.2036   2.4434   2.5483

          k =-0.5000-0.2887 0.0000 (  8936 PWs)   bands (ev):

   -57.6817 -57.6473 -57.3472 -57.0860 -34.0330 -34.0069 -33.9756 -33.9626
   -33.8195 -33.7853 -33.7190 -33.5915 -33.4804 -33.4647 -33.3725 -33.2226
   -18.6593 -18.6011 -18.2850 -17.6818 -10.8578 -10.6078  -5.6721  -5.5485
    -5.1014  -5.0286  -4.9597  -4.6692  -4.6386  -4.4874  -4.1685  -3.8371
    -3.7713  -3.5038  -2.8045  -2.5954  -1.8246  -1.5845  -1.2788  -1.0366
     0.3563   0.6948   1.4908   1.7528   2.0068   2.3841   2.4721   2.4894

          k =-0.5000 0.2887 0.0000 (  8890 PWs)   bands (ev):

   -57.6724 -57.6262 -57.3334 -57.0707 -34.1594 -34.0188 -33.9758 -33.9540
   -33.9256 -33.8000 -33.7465 -33.6421 -33.5853 -33.4277 -33.3709 -33.3058
   -18.6348 -18.4073 -18.2061 -17.5501 -10.7506 -10.0337  -5.6212  -5.4846
    -5.1756  -5.1197  -4.9862  -4.6817  -4.6358  -4.3567  -4.3032  -4.0325
    -3.7452  -3.5019  -3.0153  -2.6791  -2.4114  -2.2245  -1.6218  -1.0686
     0.6109   1.0295   1.6054   1.7749   2.0413   2.1775   2.4937   2.5627

          k =-0.5000-1.4434 0.0000 (  8844 PWs)   bands (ev):

   -57.6517 -57.6165 -57.3179 -57.0570 -34.1708 -34.1464 -33.9727 -33.9545
   -33.9302 -33.9118 -33.7738 -33.6367 -33.5882 -33.5181 -33.4710 -33.3164
   -18.4390 -18.3842 -18.0847 -17.4539 -10.2044  -9.9254  -5.5187  -5.4944
    -5.3357  -5.1485  -4.9322  -4.7086  -4.4617  -4.3815  -4.3400  -4.2149
    -3.8439  -3.5089  -3.0887  -2.7783  -2.6610  -2.3941  -2.0255  -2.0055
     0.9505   1.2251   1.7633   1.8847   2.0169   2.0668   2.5273   2.6589

     the Fermi energy is    -0.0180 ev

!    total energy              =    -939.13153535 Ry
     total all-electron energy =     -7585.738931 Ry
     estimated scf accuracy    <          2.5E-09 Ry
     smearing contrib. (-TS)   =       0.00022858 Ry
     internal energy E=F+TS    =    -939.13176392 Ry

     The total energy is F=E-TS. E is the sum of the following terms:
     one-electron contribution =   -4679.87080455 Ry
     hartree contribution      =    2347.49110362 Ry
     xc contribution           =    -113.44956712 Ry
     ewald contribution        =    1818.74629538 Ry
     one-center paw contrib.   =    -312.04879126 Ry

     convergence has been achieved in  28 iterations

     negative rho (up, down):  4.570E-03 0.000E+00

     Forces acting on atoms (cartesian axes, Ry/au):

     atom    1 type  1   force =     0.01616467    0.00922398   -0.05430448
     atom    2 type  1   force =     0.07287597    0.04247643    0.09860991
     atom    3 type  2   force =    -0.02135618   -0.01211521   -0.06238673
     atom    4 type  3   force =     0.05767523    0.03401173    0.01861224
     atom    5 type  3   force =    -0.00242522   -0.00124536   -0.00898078
     atom    6 type  1   force =    -0.00774356   -0.00445630   -0.03877229
     atom    7 type  1   force =    -0.09917126   -0.05743733    0.12256638
     atom    8 type  2   force =     0.00754527    0.00459015   -0.07621881
     atom    9 type  3   force =    -0.01918382   -0.01253336    0.00239307
     atom   10 type  3   force =    -0.00438110   -0.00251472   -0.00151851

     Total force =     0.256384     Total SCF correction =     0.000106

     BFGS Geometry Optimization
     Energy error            =      6.6E-02 Ry
     Gradient error          =      1.2E-01 Ry/Bohr

     number of scf cycles    =   1
     number of bfgs steps    =   0

     energy             new  =    -939.1315353459 Ry

     new trust radius        =       0.1677989992 bohr
     new conv_thr            =       0.0000000100 Ry


ATOMIC_POSITIONS (angstrom)
Ti               0.0097935072        1.7563332219        8.3510362620
Ti               1.4980124548        0.8652005382       10.8483968368
C                3.0099089384       -0.0133735878        9.6508328330
O               -0.0772373076        1.7034336210       11.7898277689
O                1.5250363215        0.8803953712        7.4709741672
Ti               3.0223930083        1.7451757315        8.3584849271
Ti               4.5827456029        0.8961082922       10.8539135945
C                6.0840551338        0.0120280486        9.6042660550
O                3.0732068021        1.7783920281       11.6860866083
O                4.5409658603        0.8709576005        7.4832177820



     Writing config-only to output data dir ./tmp/slab.save/ :
     XML data file
     NEW-OLD atomic charge density approx. for the potential

     Check: negative core charge=   -0.000006

     negative rho (up, down):  4.423E-03 0.000E+00

     total cpu time spent up to now is       75.4 secs

     Self-consistent Calculation

     iteration #  1     ecut=    40.00 Ry     beta= 0.70
     Davidson diagonalization with overlap
     c_bands:  2 eigenvalues not converged
     c_bands:  2 eigenvalues not converged
     ethr =  1.00E-06,  avg # of iterations = 17.8

     negative rho (up, down):  4.598E-03 0.000E+00

     total cpu time spent up to now is       83.5 secs

     total energy              =    -939.14099015 Ry
     estimated scf accuracy    <       0.04393725 Ry

     iteration #  2     ecut=    40.00 Ry     beta= 0.70
     Davidson diagonalization with overlap
     ethr =  5.49E-05,  avg # of iterations = 15.7

     negative rho (up, down):  1.376E-02 0.000E+00

     total cpu time spent up to now is       88.3 secs

     total energy              =    -939.03817285 Ry
     estimated scf accuracy    <       1.49064612 Ry

     iteration #  3     ecut=    40.00 Ry     beta= 0.70
     Davidson diagonalization with overlap
     ethr =  5.49E-05,  avg # of iterations = 16.3

     negative rho (up, down):  1.438E-02 0.000E+00

     total cpu time spent up to now is       94.5 secs

     total energy              =    -939.16726600 Ry
     estimated scf accuracy    <       0.03167994 Ry

     iteration #  4     ecut=    40.00 Ry     beta= 0.70
     Davidson diagonalization with overlap
     ethr =  3.96E-05,  avg # of iterations =  6.0

     negative rho (up, down):  1.046E-02 0.000E+00

     total cpu time spent up to now is       96.7 secs

     total energy              =    -939.17267387 Ry
     estimated scf accuracy    <       0.00237625 Ry

     iteration #  5     ecut=    40.00 Ry     beta= 0.70
     Davidson diagonalization with overlap
     c_bands:  1 eigenvalues not converged
     c_bands:  1 eigenvalues not converged
     c_bands:  4 eigenvalues not converged
     c_bands:  1 eigenvalues not converged
     ethr =  2.97E-06,  avg # of iterations = 17.3

     negative rho (up, down):  9.819E-03 0.000E+00

     total cpu time spent up to now is      100.5 secs

     total energy              =    -939.17381345 Ry
     estimated scf accuracy    <       0.00154246 Ry

     iteration #  6     ecut=    40.00 Ry     beta= 0.70
     Davidson diagonalization with overlap
     c_bands:  1 eigenvalues not converged
     c_bands:  1 eigenvalues not converged
     ethr =  1.93E-06,  avg # of iterations = 12.3

     negative rho (up, down):  5.808E-03 0.000E+00

     total cpu time spent up to now is      103.1 secs

     total energy              =    -939.17436927 Ry
     estimated scf accuracy    <       0.00037897 Ry

     iteration #  7     ecut=    40.00 Ry     beta= 0.70
     Davidson diagonalization with overlap
     c_bands:  1 eigenvalues not converged
     ethr =  4.74E-07,  avg # of iterations =  8.5

     negative rho (up, down):  4.929E-03 0.000E+00

     total cpu time spent up to now is      105.7 secs

     total energy              =    -939.17452925 Ry
     estimated scf accuracy    <       0.00024182 Ry

     iteration #  8     ecut=    40.00 Ry     beta= 0.70
     Davidson diagonalization with overlap
     c_bands:  1 eigenvalues not converged
     ethr =  3.02E-07,  avg # of iterations =  5.3

     negative rho (up, down):  4.675E-03 0.000E+00

     total cpu time spent up to now is      107.9 secs

     total energy              =    -939.17454906 Ry
     estimated scf accuracy    <       0.00015616 Ry

     iteration #  9     ecut=    40.00 Ry     beta= 0.70
     Davidson diagonalization with overlap
     ethr =  1.95E-07,  avg # of iterations =  2.0

     negative rho (up, down):  4.678E-03 0.000E+00

     total cpu time spent up to now is      109.9 secs

     total energy              =    -939.17456042 Ry
     estimated scf accuracy    <       0.00003071 Ry

     iteration # 10     ecut=    40.00 Ry     beta= 0.70
     Davidson diagonalization with overlap
     ethr =  3.84E-08,  avg # of iterations =  6.7

     negative rho (up, down):  4.679E-03 0.000E+00

     total cpu time spent up to now is      112.6 secs

     total energy              =    -939.17457034 Ry
     estimated scf accuracy    <       0.00001313 Ry

     iteration # 11     ecut=    40.00 Ry     beta= 0.70
     Davidson diagonalization with overlap
     ethr =  1.64E-08,  avg # of iterations =  2.0

     negative rho (up, down):  4.682E-03 0.000E+00

     total cpu time spent up to now is      114.6 secs

     total energy              =    -939.17456976 Ry
     estimated scf accuracy    <       0.00000347 Ry

     iteration # 12     ecut=    40.00 Ry     beta= 0.70
     Davidson diagonalization with overlap
     ethr =  4.34E-09,  avg # of iterations =  6.5

     negative rho (up, down):  4.680E-03 0.000E+00

     total cpu time spent up to now is      117.5 secs

     total energy              =    -939.17457075 Ry
     estimated scf accuracy    <       0.00000884 Ry

     iteration # 13     ecut=    40.00 Ry     beta= 0.70
     Davidson diagonalization with overlap
     ethr =  4.34E-09,  avg # of iterations =  2.8

     negative rho (up, down):  4.680E-03 0.000E+00

     total cpu time spent up to now is      119.6 secs

     total energy              =    -939.17457141 Ry
     estimated scf accuracy    <       0.00000063 Ry

     iteration # 14     ecut=    40.00 Ry     beta= 0.70
     Davidson diagonalization with overlap
     ethr =  7.89E-10,  avg # of iterations =  6.7

     negative rho (up, down):  4.680E-03 0.000E+00

     total cpu time spent up to now is      122.4 secs

     total energy              =    -939.17457160 Ry
     estimated scf accuracy    <       0.00000010 Ry

     iteration # 15     ecut=    40.00 Ry     beta= 0.70
     Davidson diagonalization with overlap
     ethr =  1.20E-10,  avg # of iterations =  6.7

     negative rho (up, down):  4.680E-03 0.000E+00

     total cpu time spent up to now is      125.1 secs

     total energy              =    -939.17457160 Ry
     estimated scf accuracy    <       0.00000021 Ry

     iteration # 16     ecut=    40.00 Ry     beta= 0.70
     Davidson diagonalization with overlap
     ethr =  1.20E-10,  avg # of iterations =  3.3

     negative rho (up, down):  4.680E-03 0.000E+00

     total cpu time spent up to now is      129.1 secs

     total energy              =    -939.17457162 Ry
     estimated scf accuracy    <       0.00000004 Ry

     iteration # 17     ecut=    40.00 Ry     beta= 0.70
     Davidson diagonalization with overlap
     ethr =  5.53E-11,  avg # of iterations =  4.0

     negative rho (up, down):  4.680E-03 0.000E+00

     total cpu time spent up to now is      131.2 secs

     total energy              =    -939.17457162 Ry
     estimated scf accuracy    <       0.00000001 Ry

     iteration # 18     ecut=    40.00 Ry     beta= 0.70
     Davidson diagonalization with overlap
     ethr =  1.45E-11,  avg # of iterations =  7.5

     negative rho (up, down):  4.680E-03 0.000E+00

     total cpu time spent up to now is      133.8 secs

     End of self-consistent calculation

          k = 0.0000 0.0000 0.0000 (  8909 PWs)   bands (ev):

   -57.4120 -57.3255 -57.2770 -57.1493 -33.9638 -33.8330 -33.7684 -33.5949
   -33.5711 -33.4946 -33.4512 -33.4489 -33.4066 -33.4062 -33.3107 -33.2830
   -18.6708 -18.4533 -18.1742 -17.9702 -10.7178  -9.5974  -6.1849  -5.6310
    -5.1749  -4.9022  -4.8988  -4.4683  -4.4244  -4.2507  -4.1805  -4.0526
    -3.9051  -3.7281  -3.0424  -1.4467  -1.4433  -0.7408   0.1388   0.1610
     0.6794   0.9113   0.9233   1.8364   1.9131   1.9477   2.1524   2.4776

          k = 0.0000 0.5773 0.0000 (  8890 PWs)   bands (ev):

   -57.3876 -57.3183 -57.2589 -57.1395 -33.8723 -33.7564 -33.7365 -33.6986
   -33.6431 -33.5867 -33.5684 -33.5054 -33.4849 -33.4576 -33.3851 -33.3483
   -18.3884 -18.1903 -18.1619 -17.9595 -10.4168  -9.6948  -5.4865  -5.2470
    -5.0764  -4.9439  -4.8192  -4.6620  -4.4833  -4.2898  -4.1687  -4.1220
    -3.7095  -3.5927  -2.6102  -2.4311  -2.3073  -2.1109  -1.2754  -0.9346
     0.9515   1.3274   1.8634   2.0411   2.2079   2.3041   2.6683   2.7948

          k = 0.0000-1.1547 0.0000 (  8960 PWs)   bands (ev):

   -57.3687 -57.3056 -57.2439 -57.1262 -33.9779 -33.9534 -33.8232 -33.8044
   -33.6146 -33.5682 -33.5665 -33.5416 -33.4839 -33.4165 -33.4011 -33.3614
   -18.1849 -18.1648 -17.9825 -17.9701  -9.6143  -9.5879  -6.2244  -6.1507
    -5.2711  -5.1020  -4.3090  -4.2682  -4.2316  -4.1891  -4.0661  -3.8901
    -3.8087  -3.7304  -3.1723  -2.9776  -1.4791  -1.4173  -1.3885  -1.3409
     0.6742   0.7826   2.1088   2.1147   2.4757   2.4949   2.5864   2.6159

          k =-0.5000-0.2887 0.0000 (  8936 PWs)   bands (ev):

   -57.3992 -57.3383 -57.2703 -57.1564 -33.7551 -33.7182 -33.6922 -33.6835
   -33.6111 -33.5432 -33.5364 -33.4760 -33.4544 -33.3944 -33.3858 -33.3055
   -18.3982 -18.3775 -18.2266 -18.1426 -10.4792 -10.3575  -5.5553  -5.4081
    -4.9895  -4.8907  -4.7579  -4.5781  -4.5185  -4.4360  -4.2259  -4.0156
    -3.6717  -3.4891  -2.5461  -2.4686  -1.3382  -1.3082  -1.1113  -0.8484
     0.7203   1.0872   1.8107   1.9255   2.2008   2.4316   2.7122   2.8427

          k =-0.5000 0.2887 0.0000 (  8890 PWs)   bands (ev):

   -57.3876 -57.3183 -57.2589 -57.1395 -33.8724 -33.7563 -33.7365 -33.6987
   -33.6431 -33.5866 -33.5690 -33.5054 -33.4845 -33.4572 -33.3849 -33.3488
   -18.3884 -18.1903 -18.1618 -17.9595 -10.4166  -9.6948  -5.4874  -5.2462
    -5.0766  -4.9440  -4.8169  -4.6629  -4.4843  -4.2908  -4.1680  -4.1211
    -3.7085  -3.5937  -2.6083  -2.4308  -2.3082  -2.1135  -1.2749  -0.9340
     0.9517   1.3284   1.8628   2.0407   2.2072   2.3054   2.6666   2.7976

          k =-0.5000-1.4434 0.0000 (  8844 PWs)   bands (ev):

   -57.3687 -57.3055 -57.2439 -57.1262 -33.8965 -33.8503 -33.7568 -33.7248
   -33.6653 -33.6258 -33.6018 -33.5565 -33.5344 -33.4831 -33.4741 -33.3624
   -18.1725 -18.1527 -17.9692 -17.9566  -9.7117  -9.6902  -5.2669  -5.2653
    -5.1506  -5.0409  -4.7964  -4.7285  -4.2977  -4.2749  -4.1531  -4.1492
    -3.7769  -3.7169  -2.6712  -2.5116  -2.3626  -2.1689  -2.0624  -2.0241
     1.3362   1.3922   2.0133   2.1374   2.2173   2.2296   2.6986   2.7005

     the Fermi energy is     0.3809 ev

!    total energy              =    -939.17457162 Ry
     total all-electron energy =     -7585.781967 Ry
     estimated scf accuracy    <          2.4E-09 Ry
     smearing contrib. (-TS)   =       0.00012614 Ry
     internal energy E=F+TS    =    -939.17469776 Ry

     The total energy is F=E-TS. E is the sum of the following terms:
     one-electron contribution =   -4636.30438654 Ry
     hartree contribution      =    2326.09416916 Ry
     xc contribution           =    -113.40737996 Ry
     ewald contribution        =    1796.48774260 Ry
     one-center paw contrib.   =    -312.04484302 Ry

     convergence has been achieved in  18 iterations

     negative rho (up, down):  4.680E-03 0.000E+00

     Forces acting on atoms (cartesian axes, Ry/au):

     atom    1 type  1   force =    -0.00612858   -0.00358926   -0.01412538
     atom    2 type  1   force =     0.01700167    0.01015205    0.03583810
     atom    3 type  2   force =    -0.00726874   -0.00408174   -0.02591482
     atom    4 type  3   force =     0.03302873    0.01974244    0.01429871
     atom    5 type  3   force =     0.00286033    0.00177986   -0.02628041
     atom    6 type  1   force =     0.01039601    0.00604461   -0.02213451
     atom    7 type  1   force =    -0.02203124   -0.01236491    0.03571411
     atom    8 type  2   force =    -0.00114114   -0.00062707   -0.01664168
     atom    9 type  3   force =    -0.01944345   -0.01288466    0.03370732
     atom   10 type  3   force =    -0.00727358   -0.00417132   -0.01446143

     Total force =     0.099203     Total SCF correction =     0.000183
     Energy error            =      4.3E-02 Ry
     Gradient error          =      3.6E-02 Ry/Bohr

     number of scf cycles    =   2
     number of bfgs steps    =   1

     energy             old  =    -939.1315353459 Ry
     energy             new  =    -939.1745716216 Ry

     CASE: energy            _new < energy            _old

     new trust radius        =       0.0818084146 bohr
     new conv_thr            =       0.0000000036 Ry


ATOMIC_POSITIONS (angstrom)
Ti               0.0059833998        1.7540879275        8.3370284738
Ti               1.5153014555        0.8754648382       10.8817009603
C                3.0030767454       -0.0172171880        9.6272594225
O               -0.0484391556        1.7206208816       11.8019321817
O                1.5271067611        0.8816987757        7.4501667127
Ti               3.0299792659        1.7495892796        8.3391786887
Ti               4.5600716822        0.8832811995       10.8884893457
C                6.0836045622        0.0118057896        9.5870642496
O                3.0570967750        1.7677265678       11.7122534219
O                4.5350988302        0.8675927939        7.4719633779



     Writing config-only to output data dir ./tmp/slab.save/ :
     XML data file
     NEW-OLD atomic charge density approx. for the potential

     Check: negative core charge=   -0.000006

     negative rho (up, down):  4.492E-03 0.000E+00

     total cpu time spent up to now is      135.4 secs

     Self-consistent Calculation

     iteration #  1     ecut=    40.00 Ry     beta= 0.70
     Davidson diagonalization with overlap
     ethr =  1.00E-06,  avg # of iterations = 11.7

     negative rho (up, down):  4.587E-03 0.000E+00

     total cpu time spent up to now is      142.1 secs

     total energy              =    -939.17504327 Ry
     estimated scf accuracy    <       0.01418065 Ry

     iteration #  2     ecut=    40.00 Ry     beta= 0.70
     Davidson diagonalization with overlap
     c_bands:  2 eigenvalues not converged
     c_bands:  2 eigenvalues not converged
     ethr =  1.77E-05,  avg # of iterations = 19.3

     negative rho (up, down):  7.445E-03 0.000E+00

     total cpu time spent up to now is      147.0 secs

     total energy              =    -939.14568408 Ry
     estimated scf accuracy    <       0.42548658 Ry

     iteration #  3     ecut=    40.00 Ry     beta= 0.70
     Davidson diagonalization with overlap
     c_bands:  2 eigenvalues not converged
     c_bands:  1 eigenvalues not converged
     c_bands:  1 eigenvalues not converged
     ethr =  1.77E-05,  avg # of iterations = 18.3

     negative rho (up, down):  7.888E-03 0.000E+00

     total cpu time spent up to now is      151.3 secs

     total energy              =    -939.18265652 Ry
     estimated scf accuracy    <       0.01371850 Ry

     iteration #  4     ecut=    40.00 Ry     beta= 0.70
     Davidson diagonalization with overlap
     ethr =  1.71E-05,  avg # of iterations =  5.3

     negative rho (up, down):  6.200E-03 0.000E+00

     total cpu time spent up to now is      153.4 secs

     total energy              =    -939.18480368 Ry
     estimated scf accuracy    <       0.00058295 Ry

     iteration #  5     ecut=    40.00 Ry     beta= 0.70
     Davidson diagonalization with overlap
     c_bands:  1 eigenvalues not converged
     c_bands:  1 eigenvalues not converged
     c_bands:  2 eigenvalues not converged
     ethr =  7.29E-07,  avg # of iterations = 15.5

     negative rho (up, down):  6.225E-03 0.000E+00

     total cpu time spent up to now is      157.3 secs

     total energy              =    -939.18522504 Ry
     estimated scf accuracy    <       0.00077084 Ry

     iteration #  6     ecut=    40.00 Ry     beta= 0.70
     Davidson diagonalization with overlap
     ethr =  7.29E-07,  avg # of iterations =  4.0

     negative rho (up, down):  5.021E-03 0.000E+00

     total cpu time spent up to now is      159.5 secs

     total energy              =    -939.18534528 Ry
     estimated scf accuracy    <       0.00019640 Ry

     iteration #  7     ecut=    40.00 Ry     beta= 0.70
     Davidson diagonalization with overlap
     ethr =  2.45E-07,  avg # of iterations =  7.0

     negative rho (up, down):  4.720E-03 0.000E+00

     total cpu time spent up to now is      164.2 secs

     total energy              =    -939.18542980 Ry
     estimated scf accuracy    <       0.00008434 Ry

     iteration #  8     ecut=    40.00 Ry     beta= 0.70
     Davidson diagonalization with overlap
     ethr =  1.05E-07,  avg # of iterations =  3.2

     negative rho (up, down):  4.630E-03 0.000E+00

     total cpu time spent up to now is      166.4 secs

     total energy              =    -939.18543375 Ry
     estimated scf accuracy    <       0.00006733 Ry

     iteration #  9     ecut=    40.00 Ry     beta= 0.70
     Davidson diagonalization with overlap
     ethr =  8.42E-08,  avg # of iterations =  2.0

     negative rho (up, down):  4.632E-03 0.000E+00

     total cpu time spent up to now is      168.5 secs

     total energy              =    -939.18543511 Ry
     estimated scf accuracy    <       0.00002026 Ry

     iteration # 10     ecut=    40.00 Ry     beta= 0.70
     Davidson diagonalization with overlap
     ethr =  2.53E-08,  avg # of iterations =  6.0

     negative rho (up, down):  4.632E-03 0.000E+00

     total cpu time spent up to now is      171.0 secs

     total energy              =    -939.18543947 Ry
     estimated scf accuracy    <       0.00000338 Ry

     iteration # 11     ecut=    40.00 Ry     beta= 0.70
     Davidson diagonalization with overlap
     ethr =  4.22E-09,  avg # of iterations =  6.8

     negative rho (up, down):  4.634E-03 0.000E+00

     total cpu time spent up to now is      173.4 secs

     total energy              =    -939.18543978 Ry
     estimated scf accuracy    <       0.00000189 Ry

     iteration # 12     ecut=    40.00 Ry     beta= 0.70
     Davidson diagonalization with overlap
     ethr =  2.36E-09,  avg # of iterations =  5.8

     negative rho (up, down):  4.632E-03 0.000E+00

     total cpu time spent up to now is      175.7 secs

     total energy              =    -939.18543994 Ry
     estimated scf accuracy    <       0.00000246 Ry

     iteration # 13     ecut=    40.00 Ry     beta= 0.70
     Davidson diagonalization with overlap
     ethr =  2.36E-09,  avg # of iterations =  2.0

     negative rho (up, down):  4.632E-03 0.000E+00

     total cpu time spent up to now is      177.6 secs

     total energy              =    -939.18544013 Ry
     estimated scf accuracy    <       0.00000018 Ry

     iteration # 14     ecut=    40.00 Ry     beta= 0.70
     Davidson diagonalization with overlap
     ethr =  2.25E-10,  avg # of iterations =  6.5

     negative rho (up, down):  4.632E-03 0.000E+00

     total cpu time spent up to now is      180.3 secs

     total energy              =    -939.18544022 Ry
     estimated scf accuracy    <       0.00000003 Ry

     iteration # 15     ecut=    40.00 Ry     beta= 0.70
     Davidson diagonalization with overlap
     ethr =  3.19E-11,  avg # of iterations =  6.8

     negative rho (up, down):  4.632E-03 0.000E+00

     total cpu time spent up to now is      182.7 secs

     total energy              =    -939.18544023 Ry
     estimated scf accuracy    <       0.00000002 Ry

     iteration # 16     ecut=    40.00 Ry     beta= 0.70
     Davidson diagonalization with overlap
     ethr =  2.70E-11,  avg # of iterations =  2.0

     negative rho (up, down):  4.632E-03 0.000E+00

     total cpu time spent up to now is      184.6 secs

     total energy              =    -939.18544023 Ry
     estimated scf accuracy    <          4.1E-09 Ry

     iteration # 17     ecut=    40.00 Ry     beta= 0.70
     Davidson diagonalization with overlap
     ethr =  5.16E-12,  avg # of iterations =  6.3

     negative rho (up, down):  4.632E-03 0.000E+00

     total cpu time spent up to now is      187.1 secs

     End of self-consistent calculation

          k = 0.0000 0.0000 0.0000 (  8909 PWs)   bands (ev):

   -57.3126 -57.2835 -57.2338 -57.2104 -33.8819 -33.8280 -33.6952 -33.5186
   -33.4801 -33.4697 -33.4316 -33.4289 -33.3624 -33.3503 -33.3342 -33.3229
   -18.6336 -18.5171 -18.0535 -18.0466 -10.6177  -9.4426  -6.1091  -5.5533
    -5.2188  -4.8765  -4.8183  -4.5047  -4.4689  -4.1874  -4.1359  -4.0258
    -3.9371  -3.7049  -3.0353  -1.4036  -1.2679  -0.6721   0.3244   0.3295
     0.8293   1.0221   1.0300   1.9182   1.9384   1.9497   2.1493   2.5642

          k = 0.0000 0.5773 0.0000 (  8890 PWs)   bands (ev):

   -57.2835 -57.2608 -57.2328 -57.2038 -33.7775 -33.7614 -33.6510 -33.6222
   -33.5949 -33.5574 -33.5120 -33.5065 -33.4316 -33.4182 -33.4082 -33.3752
   -18.3598 -18.2690 -18.0321 -18.0212 -10.2934  -9.5426  -5.4590  -5.1846
    -5.0922  -4.9347  -4.7245  -4.6291  -4.4296  -4.2737  -4.1752  -4.0530
    -3.7348  -3.5602  -2.4817  -2.3372  -2.2881  -2.0383  -1.1093  -0.8903
     1.0520   1.4148   1.9077   2.1070   2.2309   2.3093   2.6853   2.8129

          k = 0.0000-1.1547 0.0000 (  8960 PWs)   bands (ev):

   -57.2612 -57.2389 -57.2284 -57.1926 -33.8931 -33.8858 -33.8152 -33.8136
   -33.5340 -33.4982 -33.4827 -33.4666 -33.4464 -33.4286 -33.4124 -33.4101
   -18.2041 -18.0930 -18.0099 -17.9736  -9.4564  -9.4357  -6.1302  -6.0848
    -5.2199  -5.1651  -4.2304  -4.2196  -4.1722  -4.1488  -3.9954  -3.9885
    -3.7235  -3.7209  -3.0813  -3.0072  -1.3813  -1.3736  -1.2716  -1.2225
     0.7981   0.8708   2.1191   2.1317   2.5568   2.5588   2.5873   2.6375

          k =-0.5000-0.2887 0.0000 (  8936 PWs)   bands (ev):

   -57.2940 -57.2715 -57.2552 -57.2201 -33.6541 -33.6453 -33.6236 -33.6232
   -33.5883 -33.5670 -33.4478 -33.4263 -33.4132 -33.4089 -33.3868 -33.3424
   -18.4391 -18.3078 -18.2221 -18.1619 -10.3501 -10.2370  -5.5417  -5.3784
    -4.9426  -4.8641  -4.7116  -4.5921  -4.5655  -4.3601  -4.2285  -4.0081
    -3.6133  -3.5076  -2.4555  -2.3843  -1.1748  -1.1009  -1.0471  -0.7911
     0.8896   1.1705   1.8798   1.9497   2.2512   2.3650   2.7910   2.8138

          k =-0.5000 0.2887 0.0000 (  8890 PWs)   bands (ev):

   -57.2835 -57.2608 -57.2328 -57.2038 -33.7774 -33.7615 -33.6510 -33.6221
   -33.5948 -33.5575 -33.5122 -33.5066 -33.4317 -33.4181 -33.4081 -33.3752
   -18.3598 -18.2691 -18.0321 -18.0212 -10.2933  -9.5427  -5.4596  -5.1843
    -5.0924  -4.9345  -4.7231  -4.6295  -4.4304  -4.2742  -4.1742  -4.0532
    -3.7343  -3.5609  -2.4799  -2.3371  -2.2895  -2.0382  -1.1096  -0.8906
     1.0508   1.4164   1.9078   2.1064   2.2310   2.3098   2.6854   2.8118

          k =-0.5000-1.4434 0.0000 (  8844 PWs)   bands (ev):

   -57.2612 -57.2388 -57.2284 -57.1926 -33.8027 -33.7989 -33.7310 -33.7257
   -33.5795 -33.5626 -33.5354 -33.5303 -33.5111 -33.4850 -33.4383 -33.4051
   -18.1915 -18.0811 -17.9977 -17.9611  -9.5576  -9.5360  -5.2091  -5.1947
    -5.0972  -5.0912  -4.7254  -4.6454  -4.2946  -4.2345  -4.1115  -4.0577
    -3.7564  -3.7419  -2.4916  -2.3972  -2.2748  -2.2198  -2.0088  -1.9985
     1.4304   1.4458   2.0933   2.1611   2.2148   2.2505   2.6875   2.7205

     the Fermi energy is     0.5472 ev

!    total energy              =    -939.18544023 Ry
     total all-electron energy =     -7585.792836 Ry
     estimated scf accuracy    <          1.9E-09 Ry
     smearing contrib. (-TS)   =      -0.00022989 Ry
     internal energy E=F+TS    =    -939.18521034 Ry

     The total energy is F=E-TS. E is the sum of the following terms:
     one-electron contribution =   -4596.83457852 Ry
     hartree contribution      =    2306.44939955 Ry
     xc contribution           =    -113.35187588 Ry
     ewald contribution        =    1776.59435684 Ry
     one-center paw contrib.   =    -312.04251233 Ry

     convergence has been achieved in  17 iterations

     negative rho (up, down):  4.632E-03 0.000E+00

     Forces acting on atoms (cartesian axes, Ry/au):

     atom    1 type  1   force =    -0.00118567   -0.00065745   -0.00544233
     atom    2 type  1   force =    -0.00262605   -0.00123005    0.00379122
     atom    3 type  2   force =     0.00231251    0.00130589   -0.00107406
     atom    4 type  3   force =     0.01403383    0.00864940    0.01040625
     atom    5 type  3   force =     0.00111885    0.00068681   -0.02270886
     atom    6 type  1   force =     0.00415097    0.00250226   -0.01127290
     atom    7 type  1   force =     0.00545124    0.00336697   -0.00052286
     atom    8 type  2   force =    -0.00759819   -0.00452701    0.00835520
     atom    9 type  3   force =    -0.01125351   -0.00755777    0.03850710
     atom   10 type  3   force =    -0.00440397   -0.00253905   -0.02003875

     Total force =     0.058256     Total SCF correction =     0.000225
     Energy error            =      1.1E-02 Ry
     Gradient error          =      3.9E-02 Ry/Bohr

     number of scf cycles    =   3
     number of bfgs steps    =   2

     energy             old  =    -939.1745716216 Ry
     energy             new  =    -939.1854402276 Ry

     CASE: energy            _new < energy            _old

     new trust radius        =       0.0771689274 bohr
     new conv_thr            =       0.0000000039 Ry


ATOMIC_POSITIONS (angstrom)
Ti               0.0048819854        1.7534546597        8.3260627372
Ti               1.5219199608        0.8796065391       10.8990647047
C                3.0018452764       -0.0179115460        9.6166102609
O               -0.0265780951        1.7338578510       11.8143072989
O                1.5284122577        0.8825220962        7.4263943255
Ti               3.0348635575        1.7525010184        8.3230747335
Ti               4.5527524756        0.8792882965       10.9041454941
C                6.0780053727        0.0084875533        9.5847235519
O                3.0429338366        1.7582759035       11.7493705083
O                4.5298436939        0.8645684937        7.4532832198



     Writing config-only to output data dir ./tmp/slab.save/ :
     XML data file
     NEW-OLD atomic charge density approx. for the potential

     Check: negative core charge=   -0.000006

     negative rho (up, down):  4.479E-03 0.000E+00

     total cpu time spent up to now is      188.6 secs

     Self-consistent Calculation

     iteration #  1     ecut=    40.00 Ry     beta= 0.70
     Davidson diagonalization with overlap
     ethr =  1.00E-06,  avg # of iterations = 10.8

     negative rho (up, down):  4.523E-03 0.000E+00

     total cpu time spent up to now is      197.2 secs

     total energy              =    -939.18772986 Ry
     estimated scf accuracy    <       0.00400551 Ry

     iteration #  2     ecut=    40.00 Ry     beta= 0.70
     Davidson diagonalization with overlap
     c_bands:  1 eigenvalues not converged
     ethr =  5.01E-06,  avg # of iterations = 16.0

     negative rho (up, down):  5.392E-03 0.000E+00

     total cpu time spent up to now is      201.8 secs

     total energy              =    -939.18403612 Ry
     estimated scf accuracy    <       0.04552594 Ry

     iteration #  3     ecut=    40.00 Ry     beta= 0.70
     Davidson diagonalization with overlap
     c_bands:  1 eigenvalues not converged
     c_bands:  4 eigenvalues not converged
     c_bands:  1 eigenvalues not converged
     ethr =  5.01E-06,  avg # of iterations = 15.7

     negative rho (up, down):  5.704E-03 0.000E+00

     total cpu time spent up to now is      205.6 secs

     total energy              =    -939.18871376 Ry
     estimated scf accuracy    <       0.00955977 Ry

     iteration #  4     ecut=    40.00 Ry     beta= 0.70
     Davidson diagonalization with overlap
     ethr =  5.01E-06,  avg # of iterations =  9.2

     negative rho (up, down):  4.955E-03 0.000E+00

     total cpu time spent up to now is      208.0 secs

     total energy              =    -939.19000093 Ry
     estimated scf accuracy    <       0.00062755 Ry

     iteration #  5     ecut=    40.00 Ry     beta= 0.70
     Davidson diagonalization with overlap
     ethr =  7.84E-07,  avg # of iterations =  6.7

     negative rho (up, down):  4.887E-03 0.000E+00

     total cpu time spent up to now is      210.2 secs

     total energy              =    -939.19011821 Ry
     estimated scf accuracy    <       0.00010898 Ry

     iteration #  6     ecut=    40.00 Ry     beta= 0.70
     Davidson diagonalization with overlap
     ethr =  1.36E-07,  avg # of iterations =  6.7

     negative rho (up, down):  4.638E-03 0.000E+00

     total cpu time spent up to now is      212.7 secs

     total energy              =    -939.19016594 Ry
     estimated scf accuracy    <       0.00005914 Ry

     iteration #  7     ecut=    40.00 Ry     beta= 0.70
     Davidson diagonalization with overlap
     ethr =  7.39E-08,  avg # of iterations =  4.2

     negative rho (up, down):  4.561E-03 0.000E+00

     total cpu time spent up to now is      214.8 secs

     total energy              =    -939.19017963 Ry
     estimated scf accuracy    <       0.00000712 Ry

     iteration #  8     ecut=    40.00 Ry     beta= 0.70
     Davidson diagonalization with overlap
     ethr =  8.90E-09,  avg # of iterations =  6.0

     negative rho (up, down):  4.559E-03 0.000E+00

     total cpu time spent up to now is      217.6 secs

     total energy              =    -939.19018321 Ry
     estimated scf accuracy    <       0.00000736 Ry

     iteration #  9     ecut=    40.00 Ry     beta= 0.70
     Davidson diagonalization with overlap
     ethr =  8.90E-09,  avg # of iterations =  2.0

     negative rho (up, down):  4.556E-03 0.000E+00

     total cpu time spent up to now is      219.5 secs

     total energy              =    -939.19018341 Ry
     estimated scf accuracy    <       0.00000261 Ry

     iteration # 10     ecut=    40.00 Ry     beta= 0.70
     Davidson diagonalization with overlap
     ethr =  3.26E-09,  avg # of iterations =  2.5

     negative rho (up, down):  4.556E-03 0.000E+00

     total cpu time spent up to now is      221.6 secs

     total energy              =    -939.19018368 Ry
     estimated scf accuracy    <       0.00000034 Ry

     iteration # 11     ecut=    40.00 Ry     beta= 0.70
     Davidson diagonalization with overlap
     ethr =  4.28E-10,  avg # of iterations =  6.3

     negative rho (up, down):  4.557E-03 0.000E+00

     total cpu time spent up to now is      224.5 secs

     total energy              =    -939.19018384 Ry
     estimated scf accuracy    <       0.00000015 Ry

     iteration # 12     ecut=    40.00 Ry     beta= 0.70
     Davidson diagonalization with overlap
     ethr =  1.87E-10,  avg # of iterations =  6.2

     negative rho (up, down):  4.556E-03 0.000E+00

     total cpu time spent up to now is      226.8 secs

     total energy              =    -939.19018385 Ry
     estimated scf accuracy    <       0.00000008 Ry

     iteration # 13     ecut=    40.00 Ry     beta= 0.70
     Davidson diagonalization with overlap
     ethr =  1.04E-10,  avg # of iterations =  3.0

     negative rho (up, down):  4.556E-03 0.000E+00

     total cpu time spent up to now is      231.1 secs

     End of self-consistent calculation

          k = 0.0000 0.0000 0.0000 (  8909 PWs)   bands (ev):

   -57.3637 -57.3071 -57.2878 -57.2328 -33.9210 -33.8426 -33.7210 -33.5485
   -33.5255 -33.5142 -33.4623 -33.4555 -33.4149 -33.3929 -33.3503 -33.3452
   -18.6501 -18.5104 -18.0787 -18.0269 -10.6282  -9.4147  -6.0844  -5.5447
    -5.2226  -4.8403  -4.7779  -4.4990  -4.4440  -4.2024  -4.1171  -4.0436
    -3.9607  -3.7158  -3.0816  -1.4348  -1.2109  -0.6997   0.3504   0.3612
     0.8099   1.0237   1.0310   1.8759   1.8810   1.9287   2.0720   2.5473

          k = 0.0000 0.5773 0.0000 (  8890 PWs)   bands (ev):

   -57.3364 -57.2878 -57.2801 -57.2279 -33.8277 -33.7700 -33.6912 -33.6510
   -33.6206 -33.5933 -33.5478 -33.5300 -33.4706 -33.4624 -33.4397 -33.3967
   -18.3949 -18.2627 -18.0444 -18.0046 -10.2816  -9.5145  -5.4427  -5.1952
    -5.0872  -4.9287  -4.6879  -4.6173  -4.4066  -4.2690  -4.1641  -4.0354
    -3.7449  -3.5710  -2.4676  -2.3692  -2.3131  -2.0511  -1.0693  -0.9325
     1.0252   1.3997   1.8695   2.0784   2.1890   2.2487   2.6521   2.7742

          k = 0.0000-1.1547 0.0000 (  8960 PWs)   bands (ev):

   -57.3150 -57.2763 -57.2637 -57.2179 -33.9460 -33.9012 -33.8509 -33.8259
   -33.5590 -33.5477 -33.5181 -33.5176 -33.4657 -33.4489 -33.4487 -33.4373
   -18.2498 -18.0990 -17.9903 -17.9692  -9.4255  -9.4084  -6.0822  -6.0806
    -5.2018  -5.1936  -4.2478  -4.1987  -4.1623  -4.1431  -3.9885  -3.9721
    -3.7401  -3.7054  -3.0897  -3.0742  -1.4231  -1.4210  -1.2013  -1.1983
     0.7775   0.8138   2.0466   2.0645   2.5239   2.5280   2.5707   2.6051

          k =-0.5000-0.2887 0.0000 (  8936 PWs)   bands (ev):

   -57.3470 -57.3066 -57.2925 -57.2457 -33.7034 -33.6725 -33.6584 -33.6441
   -33.6098 -33.5897 -33.4986 -33.4676 -33.4442 -33.4429 -33.4186 -33.3669
   -18.4708 -18.3174 -18.1964 -18.1661 -10.3277 -10.2346  -5.5071  -5.3850
    -4.9144  -4.8825  -4.6858  -4.5696  -4.5653  -4.3740  -4.1807  -4.0293
    -3.6104  -3.5414  -2.4563  -2.3933  -1.1191  -1.0536  -1.0476  -0.8467
     0.9305   1.1033   1.8435   1.9055   2.2162   2.2623   2.7442   2.7923

          k =-0.5000 0.2887 0.0000 (  8890 PWs)   bands (ev):

   -57.3364 -57.2878 -57.2801 -57.2279 -33.8271 -33.7702 -33.6914 -33.6511
   -33.6204 -33.5938 -33.5482 -33.5300 -33.4705 -33.4620 -33.4395 -33.3967
   -18.3948 -18.2628 -18.0445 -18.0046 -10.2816  -9.5148  -5.4428  -5.1960
    -5.0873  -4.9282  -4.6865  -4.6173  -4.4058  -4.2700  -4.1631  -4.0366
    -3.7451  -3.5711  -2.4665  -2.3698  -2.3137  -2.0494  -1.0704  -0.9335
     1.0227   1.4019   1.8701   2.0782   2.1894   2.2487   2.6528   2.7732

          k =-0.5000-1.4434 0.0000 (  8844 PWs)   bands (ev):

   -57.3150 -57.2763 -57.2636 -57.2178 -33.8640 -33.8133 -33.7629 -33.7363
   -33.6256 -33.6021 -33.5629 -33.5580 -33.5417 -33.5154 -33.4594 -33.4439
   -18.2378 -18.0876 -17.9787 -17.9574  -9.5250  -9.5093  -5.2499  -5.1654
    -5.0858  -5.0717  -4.6914  -4.6359  -4.2953  -4.2334  -4.0952  -4.0254
    -3.7554  -3.7356  -2.4546  -2.4010  -2.3007  -2.2919  -2.0395  -2.0322
     1.4086   1.4191   2.0827   2.0930   2.1765   2.2116   2.6479   2.6752

     the Fermi energy is     0.5608 ev

!    total energy              =    -939.19018386 Ry
     total all-electron energy =     -7585.797579 Ry
     estimated scf accuracy    <          3.6E-09 Ry
     smearing contrib. (-TS)   =      -0.00073243 Ry
     internal energy E=F+TS    =    -939.18945144 Ry

     The total energy is F=E-TS. E is the sum of the following terms:
     one-electron contribution =   -4562.44585176 Ry
     hartree contribution      =    2289.17611602 Ry
     xc contribution           =    -113.28716919 Ry
     ewald contribution        =    1759.40838112 Ry
     one-center paw contrib.   =    -312.04092763 Ry

     convergence has been achieved in  13 iterations

     negative rho (up, down):  4.556E-03 0.000E+00

     Forces acting on atoms (cartesian axes, Ry/au):

     atom    1 type  1   force =     0.00327950    0.00198257   -0.00325249
     atom    2 type  1   force =    -0.00671209   -0.00361549   -0.00520329
     atom    3 type  2   force =     0.00564867    0.00314399    0.00670788
     atom    4 type  3   force =     0.00231101    0.00168945    0.00493391
     atom    5 type  3   force =    -0.00229977   -0.00136663   -0.01408859
     atom    6 type  1   force =    -0.00031928   -0.00003744   -0.00498762
     atom    7 type  1   force =     0.01106220    0.00640940   -0.00787061
     atom    8 type  2   force =    -0.00896312   -0.00541836    0.01420476
     atom    9 type  3   force =    -0.00334236   -0.00238061    0.02766975
     atom   10 type  3   force =    -0.00066476   -0.00040688   -0.01811369

     Total force =     0.045918     Total SCF correction =     0.000288
     Energy error            =      4.7E-03 Ry
     Gradient error          =      2.8E-02 Ry/Bohr

     number of scf cycles    =   4
     number of bfgs steps    =   3

     energy             old  =    -939.1854402276 Ry
     energy             new  =    -939.1901838627 Ry

     CASE: energy            _new < energy            _old

     new trust radius        =       0.0919000618 bohr
     new conv_thr            =       0.0000000028 Ry


ATOMIC_POSITIONS (angstrom)
Ti               0.0076450123        1.7551252895        8.3138240869
Ti               1.5241158039        0.8813203489       10.9108836767
C                3.0047533467       -0.0163134693        9.6121455135
O               -0.0082203319        1.7451735071       11.8268891328
O                1.5269397331        0.8816869162        7.3992782635
Ti               3.0374973502        1.7542074859        8.3068406850
Ti               4.5524565713        0.8792698659       10.9139341701
C                6.0673144448        0.0020606370        9.5913810523
O                3.0304633095        1.7498340827       11.7956115773
O                4.5259150818        0.8622862014        7.4262486765



     Writing config-only to output data dir ./tmp/slab.save/ :
     XML data file
     NEW-OLD atomic charge density approx. for the potential

     Check: negative core charge=   -0.000006

     negative rho (up, down):  4.397E-03 0.000E+00

     total cpu time spent up to now is      232.7 secs

     Self-consistent Calculation

     iteration #  1     ecut=    40.00 Ry     beta= 0.70
     Davidson diagonalization with overlap
     c_bands:  1 eigenvalues not converged
     ethr =  1.00E-06,  avg # of iterations = 13.3

     negative rho (up, down):  4.428E-03 0.000E+00

     total cpu time spent up to now is      239.5 secs

     total energy              =    -939.19124680 Ry
     estimated scf accuracy    <       0.00371860 Ry

     iteration #  2     ecut=    40.00 Ry     beta= 0.70
     Davidson diagonalization with overlap
     ethr =  4.65E-06,  avg # of iterations =  7.3

     negative rho (up, down):  4.957E-03 0.000E+00

     total cpu time spent up to now is      242.9 secs

     total energy              =    -939.18957952 Ry
     estimated scf accuracy    <       0.02177912 Ry

     iteration #  3     ecut=    40.00 Ry     beta= 0.70
     Davidson diagonalization with overlap
     ethr =  4.65E-06,  avg # of iterations =  9.2

     negative rho (up, down):  5.135E-03 0.000E+00

     total cpu time spent up to now is      246.2 secs

     total energy              =    -939.19216734 Ry
     estimated scf accuracy    <       0.00458740 Ry

     iteration #  4     ecut=    40.00 Ry     beta= 0.70
     Davidson diagonalization with overlap
     ethr =  4.65E-06,  avg # of iterations =  5.5

     negative rho (up, down):  4.721E-03 0.000E+00

     total cpu time spent up to now is      248.4 secs

     total energy              =    -939.19290449 Ry
     estimated scf accuracy    <       0.00303397 Ry

     iteration #  5     ecut=    40.00 Ry     beta= 0.70
     Davidson diagonalization with overlap
     ethr =  3.79E-06,  avg # of iterations =  1.5

     negative rho (up, down):  4.562E-03 0.000E+00

     total cpu time spent up to now is      250.2 secs

     total energy              =    -939.19315501 Ry
     estimated scf accuracy    <       0.00013389 Ry

     iteration #  6     ecut=    40.00 Ry     beta= 0.70
     Davidson diagonalization with overlap
     ethr =  1.67E-07,  avg # of iterations =  7.0

     negative rho (up, down):  4.497E-03 0.000E+00

     total cpu time spent up to now is      252.8 secs

     total energy              =    -939.19323139 Ry
     estimated scf accuracy    <       0.00004168 Ry

     iteration #  7     ecut=    40.00 Ry     beta= 0.70
     Davidson diagonalization with overlap
     ethr =  5.21E-08,  avg # of iterations =  4.0

     negative rho (up, down):  4.465E-03 0.000E+00

     total cpu time spent up to now is      254.9 secs

     total energy              =    -939.19323566 Ry
     estimated scf accuracy    <       0.00001795 Ry

     iteration #  8     ecut=    40.00 Ry     beta= 0.70
     Davidson diagonalization with overlap
     ethr =  2.24E-08,  avg # of iterations =  5.5

     negative rho (up, down):  4.461E-03 0.000E+00

     total cpu time spent up to now is      257.1 secs

     total energy              =    -939.19323786 Ry
     estimated scf accuracy    <       0.00000267 Ry

     iteration #  9     ecut=    40.00 Ry     beta= 0.70
     Davidson diagonalization with overlap
     ethr =  3.34E-09,  avg # of iterations =  7.3

     negative rho (up, down):  4.460E-03 0.000E+00

     total cpu time spent up to now is      260.0 secs

     total energy              =    -939.19323920 Ry
     estimated scf accuracy    <       0.00000384 Ry

     iteration # 10     ecut=    40.00 Ry     beta= 0.70
     Davidson diagonalization with overlap
     ethr =  3.34E-09,  avg # of iterations =  1.8

     negative rho (up, down):  4.460E-03 0.000E+00

     total cpu time spent up to now is      262.0 secs

     total energy              =    -939.19323910 Ry
     estimated scf accuracy    <       0.00000207 Ry

     iteration # 11     ecut=    40.00 Ry     beta= 0.70
     Davidson diagonalization with overlap
     ethr =  2.59E-09,  avg # of iterations =  2.2

     negative rho (up, down):  4.460E-03 0.000E+00

     total cpu time spent up to now is      266.2 secs

     total energy              =    -939.19323916 Ry
     estimated scf accuracy    <       0.00000032 Ry

     iteration # 12     ecut=    40.00 Ry     beta= 0.70
     Davidson diagonalization with overlap
     ethr =  4.02E-10,  avg # of iterations =  6.7

     negative rho (up, down):  4.460E-03 0.000E+00

     total cpu time spent up to now is      269.1 secs

     total energy              =    -939.19323929 Ry
     estimated scf accuracy    <       0.00000030 Ry

     iteration # 13     ecut=    40.00 Ry     beta= 0.70
     Davidson diagonalization with overlap
     ethr =  3.76E-10,  avg # of iterations =  1.2

     negative rho (up, down):  4.460E-03 0.000E+00

     total cpu time spent up to now is      271.0 secs

     total energy              =    -939.19323928 Ry
     estimated scf accuracy    <       0.00000013 Ry

     iteration # 14     ecut=    40.00 Ry     beta= 0.70
     Davidson diagonalization with overlap
     ethr =  1.58E-10,  avg # of iterations =  3.2

     negative rho (up, down):  4.460E-03 0.000E+00

     total cpu time spent up to now is      273.0 secs

     total energy              =    -939.19323929 Ry
     estimated scf accuracy    <       0.00000001 Ry

     iteration # 15     ecut=    40.00 Ry     beta= 0.70
     Davidson diagonalization with overlap
     ethr =  1.25E-11,  avg # of iterations =  6.8

     negative rho (up, down):  4.460E-03 0.000E+00

     total cpu time spent up to now is      275.8 secs

     total energy              =    -939.19323930 Ry
     estimated scf accuracy    <          3.9E-09 Ry

     iteration # 16     ecut=    40.00 Ry     beta= 0.70
     Davidson diagonalization with overlap
     ethr =  4.88E-12,  avg # of iterations =  1.5

     negative rho (up, down):  4.460E-03 0.000E+00

     total cpu time spent up to now is      277.6 secs

     End of self-consistent calculation

          k = 0.0000 0.0000 0.0000 (  8909 PWs)   bands (ev):

   -57.4348 -57.3769 -57.3480 -57.3168 -33.9729 -33.9043 -33.7796 -33.6147
   -33.5855 -33.5788 -33.5287 -33.5280 -33.4767 -33.4550 -33.4280 -33.4233
   -18.6165 -18.5227 -18.0934 -18.0608 -10.6897  -9.4399  -6.0710  -5.5571
    -5.2096  -4.7705  -4.7429  -4.4460  -4.4063  -4.2068  -4.1539  -4.0982
    -3.9874  -3.7413  -3.1630  -1.5045  -1.2028  -0.7739   0.3170   0.3251
     0.7028   0.9924   0.9989   1.7935   1.7953   1.8593   1.9574   2.5003

          k = 0.0000 0.5773 0.0000 (  8890 PWs)   bands (ev):

   -57.4103 -57.3518 -57.3403 -57.3155 -33.8794 -33.8330 -33.7470 -33.7109
   -33.6842 -33.6542 -33.6127 -33.6054 -33.5364 -33.5266 -33.5135 -33.4704
   -18.3500 -18.2854 -18.0708 -18.0401 -10.3186  -9.5388  -5.4169  -5.1801
    -5.1082  -4.9123  -4.6610  -4.6242  -4.3732  -4.2726  -4.1610  -4.0316
    -3.7645  -3.6060  -2.4988  -2.4394  -2.3866  -2.1090  -1.0813  -1.0194
     0.9425   1.3473   1.7986   2.0145   2.1113   2.1516   2.5930   2.7007

          k = 0.0000-1.1547 0.0000 (  8960 PWs)   bands (ev):

   -57.3912 -57.3338 -57.3243 -57.3099 -33.9889 -33.9583 -33.9119 -33.8983
   -33.6312 -33.5989 -33.5834 -33.5738 -33.5325 -33.5240 -33.5164 -33.5151
   -18.1959 -18.1210 -18.0285 -18.0077  -9.4431  -9.4379  -6.0853  -6.0537
    -5.2221  -5.1751  -4.2357  -4.1803  -4.1693  -4.1567  -4.0029  -3.9723
    -3.7632  -3.7190  -3.1733  -3.1456  -1.5043  -1.5035  -1.2158  -1.1875
     0.6896   0.6953   1.9339   1.9444   2.4767   2.4895   2.5239   2.5396

          k =-0.5000-0.2887 0.0000 (  8936 PWs)   bands (ev):

   -57.4218 -57.3653 -57.3541 -57.3356 -33.7625 -33.7289 -33.7188 -33.6973
   -33.6709 -33.6652 -33.5585 -33.5376 -33.5178 -33.5022 -33.4841 -33.4534
   -18.4052 -18.3380 -18.2363 -18.2040 -10.3489 -10.2868  -5.4463  -5.3948
    -4.9062  -4.8918  -4.6606  -4.5886  -4.4657  -4.3615  -4.1878  -4.0758
    -3.6322  -3.5874  -2.4959  -2.4522  -1.1118  -1.0809  -1.0635  -0.9607
     0.8900   1.0033   1.7763   1.8228   2.1106   2.1629   2.6775   2.7171

          k =-0.5000 0.2887 0.0000 (  8890 PWs)   bands (ev):

   -57.4103 -57.3518 -57.3403 -57.3155 -33.8783 -33.8333 -33.7475 -33.7112
   -33.6840 -33.6547 -33.6132 -33.6053 -33.5363 -33.5262 -33.5132 -33.4705
   -18.3497 -18.2855 -18.0710 -18.0401 -10.3186  -9.5391  -5.4168  -5.1813
    -5.1086  -4.9117  -4.6590  -4.6242  -4.3713  -4.2740  -4.1599  -4.0331
    -3.7656  -3.6058  -2.4981  -2.4405  -2.3866  -2.1065  -1.0826  -1.0210
     0.9390   1.3500   1.7995   2.0145   2.1114   2.1514   2.5943   2.6994

          k =-0.5000-1.4434 0.0000 (  8844 PWs)   bands (ev):

   -57.3911 -57.3338 -57.3242 -57.3098 -33.9073 -33.8683 -33.8242 -33.8163
   -33.6900 -33.6553 -33.6355 -33.6171 -33.5953 -33.5946 -33.5277 -33.5185
   -18.1846 -18.1103 -18.0177 -17.9968  -9.5409  -9.5380  -5.2289  -5.1506
    -5.0973  -5.0950  -4.6574  -4.6565  -4.2894  -4.2460  -4.0655  -4.0175
    -3.7710  -3.7452  -2.4753  -2.4579  -2.4036  -2.3560  -2.1124  -2.1086
     1.3449   1.3539   2.0034   2.0324   2.1178   2.1324   2.5873   2.5994

     the Fermi energy is     0.5030 ev

!    total energy              =    -939.19323929 Ry
     total all-electron energy =     -7585.800635 Ry
     estimated scf accuracy    <          1.7E-09 Ry
     smearing contrib. (-TS)   =      -0.00145217 Ry
     internal energy E=F+TS    =    -939.19178712 Ry

     The total energy is F=E-TS. E is the sum of the following terms:
     one-electron contribution =   -4525.85260744 Ry
     hartree contribution      =    2270.72206940 Ry
     xc contribution           =    -113.20939237 Ry
     ewald contribution        =    1741.18754208 Ry
     one-center paw contrib.   =    -312.03939879 Ry

     convergence has been achieved in  16 iterations

     negative rho (up, down):  4.460E-03 0.000E+00

     Forces acting on atoms (cartesian axes, Ry/au):

     atom    1 type  1   force =     0.00459215    0.00280410   -0.00181232
     atom    2 type  1   force =    -0.00337488   -0.00172054   -0.00415066
     atom    3 type  2   force =     0.00486916    0.00265504    0.00551533
     atom    4 type  3   force =    -0.00542450   -0.00303129   -0.00122236
     atom    5 type  3   force =    -0.00569000   -0.00339996   -0.00308640
     atom    6 type  1   force =    -0.00087462   -0.00034439   -0.00054863
     atom    7 type  1   force =     0.00839823    0.00486490   -0.00443084
     atom    8 type  2   force =    -0.00687706   -0.00426452    0.01114001
     atom    9 type  3   force =     0.00169589    0.00093466    0.00923836
     atom   10 type  3   force =     0.00268564    0.00150199   -0.01064250

     Total force =     0.027111     Total SCF correction =     0.000195
     Energy error            =      3.1E-03 Ry
     Gradient error          =      1.1E-02 Ry/Bohr

     number of scf cycles    =   5
     number of bfgs steps    =   4

     energy             old  =    -939.1901838627 Ry
     energy             new  =    -939.1932392939 Ry

     CASE: energy            _new < energy            _old

     new trust radius        =       0.0381280450 bohr
     new conv_thr            =       0.0000000011 Ry


ATOMIC_POSITIONS (angstrom)
Ti               0.0114326531        1.7574370436        8.3083325730
Ti               1.5237388000        0.8813964242       10.9134387630
C                3.0083984625       -0.0143329413        9.6131717891
O               -0.0053931437        1.7470949811       11.8300273098
O                1.5226387480        0.8791328976        7.3889603198
Ti               3.0380018028        1.7546617818        8.3009868870
Ti               4.5564775631        0.8816617552       10.9159480052
C                6.0597550741       -0.0025735036        9.5995288771
O                3.0273846817        1.7476166208       11.8154281301
O                4.5264456800        0.8625558059        7.4112141807



     Writing config-only to output data dir ./tmp/slab.save/ :
     XML data file
     NEW-OLD atomic charge density approx. for the potential

     Check: negative core charge=   -0.000006

     negative rho (up, down):  4.383E-03 0.000E+00

     total cpu time spent up to now is      279.1 secs

     Self-consistent Calculation

     iteration #  1     ecut=    40.00 Ry     beta= 0.70
     Davidson diagonalization with overlap
     ethr =  1.00E-06,  avg # of iterations =  8.0

     negative rho (up, down):  4.392E-03 0.000E+00

     total cpu time spent up to now is      283.6 secs

     total energy              =    -939.19340819 Ry
     estimated scf accuracy    <       0.00102093 Ry

     iteration #  2     ecut=    40.00 Ry     beta= 0.70
     Davidson diagonalization with overlap
     c_bands:  1 eigenvalues not converged
     c_bands:  1 eigenvalues not converged
     c_bands:  3 eigenvalues not converged
     c_bands:  1 eigenvalues not converged
     ethr =  1.28E-06,  avg # of iterations = 18.5

     negative rho (up, down):  4.491E-03 0.000E+00

     total cpu time spent up to now is      287.7 secs

     total energy              =    -939.19178832 Ry
     estimated scf accuracy    <       0.02179238 Ry

     iteration #  3     ecut=    40.00 Ry     beta= 0.70
     Davidson diagonalization with overlap
     c_bands:  1 eigenvalues not converged
     c_bands:  3 eigenvalues not converged
     c_bands:  1 eigenvalues not converged
     ethr =  1.28E-06,  avg # of iterations = 16.3

     negative rho (up, down):  4.509E-03 0.000E+00

     total cpu time spent up to now is      291.5 secs

     total energy              =    -939.19374795 Ry
     estimated scf accuracy    <       0.00158910 Ry

     iteration #  4     ecut=    40.00 Ry     beta= 0.70
     Davidson diagonalization with overlap
     c_bands:  1 eigenvalues not converged
     ethr =  1.28E-06,  avg # of iterations =  7.2

     negative rho (up, down):  4.436E-03 0.000E+00

     total cpu time spent up to now is      293.9 secs

     total energy              =    -939.19399061 Ry
     estimated scf accuracy    <       0.00010347 Ry

     iteration #  5     ecut=    40.00 Ry     beta= 0.70
     Davidson diagonalization with overlap
     ethr =  1.29E-07,  avg # of iterations =  6.0

     negative rho (up, down):  4.444E-03 0.000E+00

     total cpu time spent up to now is      296.6 secs

     total energy              =    -939.19402264 Ry
     estimated scf accuracy    <       0.00005991 Ry

     iteration #  6     ecut=    40.00 Ry     beta= 0.70
     Davidson diagonalization with overlap
     ethr =  7.49E-08,  avg # of iterations =  2.8

     negative rho (up, down):  4.415E-03 0.000E+00

     total cpu time spent up to now is      300.7 secs

     total energy              =    -939.19402339 Ry
     estimated scf accuracy    <       0.00002148 Ry

     iteration #  7     ecut=    40.00 Ry     beta= 0.70
     Davidson diagonalization with overlap
     ethr =  2.69E-08,  avg # of iterations =  5.0

     negative rho (up, down):  4.409E-03 0.000E+00

     total cpu time spent up to now is      303.3 secs

     total energy              =    -939.19403016 Ry
     estimated scf accuracy    <       0.00000536 Ry

     iteration #  8     ecut=    40.00 Ry     beta= 0.70
     Davidson diagonalization with overlap
     ethr =  6.70E-09,  avg # of iterations =  5.7

     negative rho (up, down):  4.408E-03 0.000E+00

     total cpu time spent up to now is      305.9 secs

     total energy              =    -939.19403024 Ry
     estimated scf accuracy    <       0.00000752 Ry

     iteration #  9     ecut=    40.00 Ry     beta= 0.70
     Davidson diagonalization with overlap
     ethr =  6.70E-09,  avg # of iterations =  2.0

     negative rho (up, down):  4.407E-03 0.000E+00

     total cpu time spent up to now is      307.9 secs

     total energy              =    -939.19403026 Ry
     estimated scf accuracy    <       0.00000158 Ry

     iteration # 10     ecut=    40.00 Ry     beta= 0.70
     Davidson diagonalization with overlap
     ethr =  1.97E-09,  avg # of iterations =  5.2

     negative rho (up, down):  4.407E-03 0.000E+00

     total cpu time spent up to now is      310.7 secs

     total energy              =    -939.19403104 Ry
     estimated scf accuracy    <       0.00000069 Ry

     iteration # 11     ecut=    40.00 Ry     beta= 0.70
     Davidson diagonalization with overlap
     ethr =  8.63E-10,  avg # of iterations =  2.8

     negative rho (up, down):  4.406E-03 0.000E+00

     total cpu time spent up to now is      312.8 secs

     total energy              =    -939.19403095 Ry
     estimated scf accuracy    <       0.00000037 Ry

     iteration # 12     ecut=    40.00 Ry     beta= 0.70
     Davidson diagonalization with overlap
     ethr =  4.62E-10,  avg # of iterations =  3.3

     negative rho (up, down):  4.406E-03 0.000E+00

     total cpu time spent up to now is      315.6 secs

     total energy              =    -939.19403103 Ry
     estimated scf accuracy    <          7.9E-09 Ry

     iteration # 13     ecut=    40.00 Ry     beta= 0.70
     Davidson diagonalization with overlap
     ethr =  9.91E-12,  avg # of iterations =  9.7

     negative rho (up, down):  4.406E-03 0.000E+00

     total cpu time spent up to now is      320.2 secs

     total energy              =    -939.19403104 Ry
     estimated scf accuracy    <       0.00000004 Ry

     iteration # 14     ecut=    40.00 Ry     beta= 0.70
     Davidson diagonalization with overlap
     ethr =  9.91E-12,  avg # of iterations =  5.7

     negative rho (up, down):  4.406E-03 0.000E+00

     total cpu time spent up to now is      323.2 secs

     total energy              =    -939.19403104 Ry
     estimated scf accuracy    <          9.0E-09 Ry

     iteration # 15     ecut=    40.00 Ry     beta= 0.70
     Davidson diagonalization with overlap
     ethr =  9.91E-12,  avg # of iterations =  2.7

     negative rho (up, down):  4.406E-03 0.000E+00

     total cpu time spent up to now is      325.8 secs

     total energy              =    -939.19403104 Ry
     estimated scf accuracy    <          2.6E-09 Ry

     iteration # 16     ecut=    40.00 Ry     beta= 0.70
     Davidson diagonalization with overlap
     ethr =  3.22E-12,  avg # of iterations =  6.5

     negative rho (up, down):  4.406E-03 0.000E+00

     total cpu time spent up to now is      329.7 secs

     total energy              =    -939.19403104 Ry
     estimated scf accuracy    <          2.8E-09 Ry

     iteration # 17     ecut=    40.00 Ry     beta= 0.70
     Davidson diagonalization with overlap
     ethr =  3.22E-12,  avg # of iterations =  1.3

     negative rho (up, down):  4.406E-03 0.000E+00

     total cpu time spent up to now is      334.2 secs

     End of self-consistent calculation

          k = 0.0000 0.0000 0.0000 (  8909 PWs)   bands (ev):

   -57.4536 -57.4216 -57.3772 -57.3665 -33.9935 -33.9419 -33.8083 -33.6448
   -33.6144 -33.6057 -33.5676 -33.5651 -33.4991 -33.4899 -33.4726 -33.4694
   -18.6017 -18.5216 -18.0956 -18.0874 -10.7266  -9.4637  -6.0704  -5.5677
    -5.2022  -4.7425  -4.7301  -4.3990  -4.3841  -4.1991  -4.1900  -4.1362
    -3.9939  -3.7547  -3.2030  -1.5412  -1.2138  -0.8139   0.2846   0.2893
     0.6449   0.9718   0.9813   1.7528   1.7557   1.8207   1.9017   2.4749

          k = 0.0000 0.5773 0.0000 (  8890 PWs)   bands (ev):

   -57.4260 -57.3960 -57.3733 -57.3654 -33.8951 -33.8745 -33.7667 -33.7381
   -33.7196 -33.6878 -33.6531 -33.6393 -33.5712 -33.5576 -33.5494 -33.5142
   -18.3184 -18.2917 -18.0785 -18.0763 -10.3457  -9.5620  -5.4065  -5.1766
    -5.1132  -4.9042  -4.6590  -4.6267  -4.3601  -4.2742  -4.1594  -4.0344
    -3.7722  -3.6253  -2.5203  -2.4735  -2.4321  -2.1429  -1.1000  -1.0642
     0.8973   1.3181   1.7635   1.9828   2.0735   2.1035   2.5639   2.6636

          k = 0.0000-1.1547 0.0000 (  8960 PWs)   bands (ev):

   -57.4047 -57.3713 -57.3666 -57.3595 -33.9969 -33.9913 -33.9447 -33.9422
   -33.6538 -33.6320 -33.6081 -33.6005 -33.5771 -33.5601 -33.5591 -33.5562
   -18.1327 -18.1238 -18.0595 -18.0581  -9.4643  -9.4631  -6.0843  -6.0547
    -5.2190  -5.1769  -4.2174  -4.1819  -4.1736  -4.1702  -4.0085  -3.9808
    -3.7655  -3.7372  -3.2149  -3.1841  -1.5455  -1.5432  -1.2300  -1.2013
     0.6297   0.6465   1.8815   1.8854   2.4570   2.4721   2.4996   2.5012

          k =-0.5000-0.2887 0.0000 (  8936 PWs)   bands (ev):

   -57.4358 -57.4044 -57.3958 -57.3833 -33.7775 -33.7572 -33.7458 -33.7309
   -33.7110 -33.7069 -33.5718 -33.5678 -33.5582 -33.5398 -33.5278 -33.4990
   -18.3521 -18.3249 -18.2737 -18.2483 -10.3658 -10.3242  -5.4284  -5.3896
    -4.9089  -4.8930  -4.6457  -4.6054  -4.4230  -4.3322  -4.1844  -4.1157
    -3.6461  -3.6080  -2.5181  -2.4904  -1.1191  -1.1000  -1.0875  -1.0245
     0.8547   0.9560   1.7491   1.7760   2.0630   2.1144   2.6508   2.6702

          k =-0.5000 0.2887 0.0000 (  8890 PWs)   bands (ev):

   -57.4259 -57.3960 -57.3733 -57.3654 -33.8939 -33.8749 -33.7670 -33.7383
   -33.7197 -33.6880 -33.6534 -33.6397 -33.5712 -33.5575 -33.5487 -33.5142
   -18.3182 -18.2916 -18.0786 -18.0764 -10.3458  -9.5623  -5.4064  -5.1770
    -5.1145  -4.9037  -4.6568  -4.6268  -4.3585  -4.2754  -4.1580  -4.0356
    -3.7740  -3.6250  -2.5195  -2.4748  -2.4320  -2.1402  -1.1011  -1.0659
     0.8938   1.3208   1.7643   1.9826   2.0736   2.1032   2.5652   2.6624

          k =-0.5000-1.4434 0.0000 (  8844 PWs)   bands (ev):

   -57.4047 -57.3713 -57.3665 -57.3595 -33.9056 -33.9017 -33.8731 -33.8579
   -33.7073 -33.6851 -33.6638 -33.6515 -33.6386 -33.6294 -33.5710 -33.5542
   -18.1215 -18.1133 -18.0489 -18.0478  -9.5624  -9.5615  -5.1973  -5.1580
    -5.1149  -5.1058  -4.6695  -4.6506  -4.2789  -4.2571  -4.0467  -4.0269
    -3.7780  -3.7566  -2.5000  -2.4904  -2.4468  -2.3972  -2.1518  -2.1461
     1.3139   1.3177   1.9691   1.9954   2.0903   2.0951   2.5612   2.5630

     the Fermi energy is     0.4609 ev

!    total energy              =    -939.19403104 Ry
     total all-electron energy =     -7585.801426 Ry
     estimated scf accuracy    <          1.1E-09 Ry
     smearing contrib. (-TS)   =      -0.00168648 Ry
     internal energy E=F+TS    =    -939.19234456 Ry

     The total energy is F=E-TS. E is the sum of the following terms:
     one-electron contribution =   -4511.49119872 Ry
     hartree contribution      =    2263.46007630 Ry
     xc contribution           =    -113.17649496 Ry
     ewald contribution        =    1734.05409961 Ry
     one-center paw contrib.   =    -312.03882679 Ry

     convergence has been achieved in  17 iterations

     negative rho (up, down):  4.406E-03 0.000E+00

     Forces acting on atoms (cartesian axes, Ry/au):

     atom    1 type  1   force =     0.00312503    0.00200469   -0.00084455
     atom    2 type  1   force =     0.00130411    0.00096474   -0.00055331
     atom    3 type  2   force =     0.00189170    0.00092578    0.00109911
     atom    4 type  3   force =    -0.00561405   -0.00327047   -0.00293009
     atom    5 type  3   force =    -0.00614305   -0.00369599    0.00162164
     atom    6 type  1   force =     0.00164366    0.00112213    0.00054230
     atom    7 type  1   force =     0.00435954    0.00261968    0.00027524
     atom    8 type  2   force =    -0.00438820   -0.00281594    0.00525281
     atom    9 type  3   force =     0.00100515    0.00059385    0.00039845
     atom   10 type  3   force =     0.00281611    0.00155153   -0.00486160

     Total force =     0.015760     Total SCF correction =     0.000126
     Energy error            =      7.9E-04 Ry
     Gradient error          =      6.1E-03 Ry/Bohr

     number of scf cycles    =   6
     number of bfgs steps    =   5

     energy             old  =    -939.1932392939 Ry
     energy             new  =    -939.1940310416 Ry

     CASE: energy            _new < energy            _old

     new trust radius        =       0.0177573757 bohr
     new conv_thr            =       0.0000000006 Ry


ATOMIC_POSITIONS (angstrom)
Ti               0.0148576851        1.7596055503        8.3058571054
Ti               1.5246972080        0.8822073249       10.9140808911
C                3.0109003207       -0.0130525668        9.6141072468
O               -0.0082763745        1.7455103851       11.8290726768
O                1.5167343657        0.8755905184        7.3864454429
Ti               3.0396007836        1.7557686547        8.2992653472
Ti               4.5609809918        0.8843695784       10.9169583448
C                6.0539913732       -0.0061996113        9.6060042857
O                3.0268119024        1.7471295967       11.8227300446
O                4.5285820655        0.8637214349        7.4025154493



     Writing config-only to output data dir ./tmp/slab.save/ :
     XML data file
     NEW-OLD atomic charge density approx. for the potential

     Check: negative core charge=   -0.000006

     negative rho (up, down):  4.376E-03 0.000E+00

     total cpu time spent up to now is      336.2 secs

     Self-consistent Calculation

     iteration #  1     ecut=    40.00 Ry     beta= 0.70
     Davidson diagonalization with overlap
     ethr =  1.00E-06,  avg # of iterations =  6.3

     negative rho (up, down):  4.380E-03 0.000E+00

     total cpu time spent up to now is      341.1 secs

     total energy              =    -939.19411056 Ry
     estimated scf accuracy    <       0.00039205 Ry

     iteration #  2     ecut=    40.00 Ry     beta= 0.70
     Davidson diagonalization with overlap
     c_bands:  1 eigenvalues not converged
     ethr =  4.90E-07,  avg # of iterations = 12.5

     negative rho (up, down):  4.416E-03 0.000E+00

     total cpu time spent up to now is      345.7 secs

     total energy              =    -939.19345274 Ry
     estimated scf accuracy    <       0.00921005 Ry

     iteration #  3     ecut=    40.00 Ry     beta= 0.70
     Davidson diagonalization with overlap
     c_bands:  1 eigenvalues not converged
     c_bands:  4 eigenvalues not converged
     ethr =  4.90E-07,  avg # of iterations = 12.7

     negative rho (up, down):  4.421E-03 0.000E+00

     total cpu time spent up to now is      349.9 secs

     total energy              =    -939.19426210 Ry
     estimated scf accuracy    <       0.00055522 Ry

     iteration #  4     ecut=    40.00 Ry     beta= 0.70
     Davidson diagonalization with overlap
     ethr =  4.90E-07,  avg # of iterations =  4.3

     negative rho (up, down):  4.397E-03 0.000E+00

     total cpu time spent up to now is      352.9 secs

     total energy              =    -939.19434774 Ry
     estimated scf accuracy    <       0.00004974 Ry

     iteration #  5     ecut=    40.00 Ry     beta= 0.70
     Davidson diagonalization with overlap
     ethr =  6.22E-08,  avg # of iterations =  6.8

     negative rho (up, down):  4.397E-03 0.000E+00

     total cpu time spent up to now is      355.9 secs

     total energy              =    -939.19436077 Ry
     estimated scf accuracy    <       0.00001746 Ry

     iteration #  6     ecut=    40.00 Ry     beta= 0.70
     Davidson diagonalization with overlap
     ethr =  2.18E-08,  avg # of iterations =  2.8

     negative rho (up, down):  4.388E-03 0.000E+00

     total cpu time spent up to now is      358.6 secs

     total energy              =    -939.19436336 Ry
     estimated scf accuracy    <       0.00000409 Ry

     iteration #  7     ecut=    40.00 Ry     beta= 0.70
     Davidson diagonalization with overlap
     ethr =  5.11E-09,  avg # of iterations =  7.0

     negative rho (up, down):  4.386E-03 0.000E+00

     total cpu time spent up to now is      362.3 secs

     total energy              =    -939.19436496 Ry
     estimated scf accuracy    <       0.00000243 Ry

     iteration #  8     ecut=    40.00 Ry     beta= 0.70
     Davidson diagonalization with overlap
     ethr =  3.03E-09,  avg # of iterations =  4.5

     negative rho (up, down):  4.385E-03 0.000E+00

     total cpu time spent up to now is      365.2 secs

     total energy              =    -939.19436514 Ry
     estimated scf accuracy    <       0.00000105 Ry

     iteration #  9     ecut=    40.00 Ry     beta= 0.70
     Davidson diagonalization with overlap
     ethr =  1.31E-09,  avg # of iterations =  5.0

     negative rho (up, down):  4.385E-03 0.000E+00

     total cpu time spent up to now is      370.6 secs

     total energy              =    -939.19436532 Ry
     estimated scf accuracy    <       0.00000020 Ry

     iteration # 10     ecut=    40.00 Ry     beta= 0.70
     Davidson diagonalization with overlap
     ethr =  2.47E-10,  avg # of iterations =  5.8

     negative rho (up, down):  4.385E-03 0.000E+00

     total cpu time spent up to now is      374.4 secs

     total energy              =    -939.19436538 Ry
     estimated scf accuracy    <       0.00000015 Ry

     iteration # 11     ecut=    40.00 Ry     beta= 0.70
     Davidson diagonalization with overlap
     ethr =  1.93E-10,  avg # of iterations =  1.8

     negative rho (up, down):  4.385E-03 0.000E+00

     total cpu time spent up to now is      377.0 secs

     total energy              =    -939.19436537 Ry
     estimated scf accuracy    <       0.00000004 Ry

     iteration # 12     ecut=    40.00 Ry     beta= 0.70
     Davidson diagonalization with overlap
     ethr =  4.50E-11,  avg # of iterations =  5.5

     negative rho (up, down):  4.385E-03 0.000E+00

     total cpu time spent up to now is      380.7 secs

     total energy              =    -939.19436539 Ry
     estimated scf accuracy    <       0.00000002 Ry

     iteration # 13     ecut=    40.00 Ry     beta= 0.70
     Davidson diagonalization with overlap
     ethr =  2.81E-11,  avg # of iterations =  1.8

     negative rho (up, down):  4.385E-03 0.000E+00

     total cpu time spent up to now is      383.2 secs

     total energy              =    -939.19436539 Ry
     estimated scf accuracy    <          5.6E-09 Ry

     iteration # 14     ecut=    40.00 Ry     beta= 0.70
     Davidson diagonalization with overlap
     ethr =  6.94E-12,  avg # of iterations =  4.8

     negative rho (up, down):  4.385E-03 0.000E+00

     total cpu time spent up to now is      386.1 secs

     total energy              =    -939.19436539 Ry
     estimated scf accuracy    <          1.4E-09 Ry

     iteration # 15     ecut=    40.00 Ry     beta= 0.70
     Davidson diagonalization with overlap
     ethr =  1.80E-12,  avg # of iterations =  5.8

     negative rho (up, down):  4.385E-03 0.000E+00

     total cpu time spent up to now is      389.6 secs

     End of self-consistent calculation

          k = 0.0000 0.0000 0.0000 (  8909 PWs)   bands (ev):

   -57.4582 -57.4331 -57.3909 -57.3805 -33.9996 -33.9536 -33.8171 -33.6524
   -33.6267 -33.6153 -33.5801 -33.5705 -33.5081 -33.5043 -33.4855 -33.4814
   -18.6000 -18.5183 -18.1082 -18.0837 -10.7386  -9.4707  -6.0699  -5.5714
    -5.1992  -4.7316  -4.7255  -4.3778  -4.3747  -4.2103  -4.1879  -4.1572
    -3.9898  -3.7598  -3.2162  -1.5547  -1.2176  -0.8284   0.2673   0.2691
     0.6261   0.9742   0.9824   1.7378   1.7429   1.8110   1.8804   2.4678

          k = 0.0000 0.5773 0.0000 (  8890 PWs)   bands (ev):

   -57.4265 -57.4085 -57.3902 -57.3794 -33.8970 -33.8901 -33.7743 -33.7470
   -33.7255 -33.7017 -33.6661 -33.6478 -33.5796 -33.5718 -33.5587 -33.5275
   -18.3161 -18.2859 -18.0927 -18.0763 -10.3541  -9.5689  -5.4024  -5.1794
    -5.1105  -4.9016  -4.6600  -4.6257  -4.3548  -4.2755  -4.1580  -4.0357
    -3.7732  -3.6327  -2.5234  -2.4876  -2.4482  -2.1539  -1.1045  -1.0805
     0.8829   1.3085   1.7522   1.9728   2.0627   2.0858   2.5548   2.6527

          k = 0.0000-1.1547 0.0000 (  8960 PWs)   bands (ev):

   -57.3968 -57.3890 -57.3869 -57.3735 -34.0030 -33.9992 -33.9558 -33.9524
   -33.6570 -33.6469 -33.6144 -33.6108 -33.5857 -33.5753 -33.5717 -33.5691
   -18.1142 -18.0970 -18.0864 -18.0834  -9.4715  -9.4700  -6.0775  -6.0605
    -5.2100  -5.1860  -4.2068  -4.1910  -4.1759  -4.1736  -4.0035  -3.9879
    -3.7604  -3.7494  -3.2224  -3.2032  -1.5595  -1.5562  -1.2295  -1.2097
     0.6139   0.6300   1.8647   1.8658   2.4531   2.4597   2.4886   2.4979

          k =-0.5000-0.2887 0.0000 (  8936 PWs)   bands (ev):

   -57.4302 -57.4236 -57.4104 -57.3990 -33.7790 -33.7688 -33.7497 -33.7444
   -33.7260 -33.7185 -33.5799 -33.5733 -33.5675 -33.5587 -33.5343 -33.5158
   -18.3351 -18.3022 -18.2918 -18.2744 -10.3667 -10.3404  -5.4217  -5.3871
    -4.9088  -4.8940  -4.6367  -4.6133  -4.3977  -4.3386  -4.1631  -4.1389
    -3.6498  -3.6176  -2.5199  -2.5061  -1.1167  -1.1029  -1.1018  -1.0548
     0.8543   0.9295   1.7444   1.7567   2.0554   2.0905   2.6410   2.6592

          k =-0.5000 0.2887 0.0000 (  8890 PWs)   bands (ev):

   -57.4265 -57.4085 -57.3902 -57.3794 -33.8959 -33.8905 -33.7743 -33.7469
   -33.7261 -33.7016 -33.6664 -33.6484 -33.5797 -33.5717 -33.5583 -33.5273
   -18.3160 -18.2857 -18.0926 -18.0766 -10.3541  -9.5692  -5.4022  -5.1791
    -5.1124  -4.9012  -4.6579  -4.6257  -4.3531  -4.2767  -4.1566  -4.0364
    -3.7754  -3.6324  -2.5224  -2.4886  -2.4485  -2.1513  -1.1054  -1.0821
     0.8795   1.3110   1.7530   1.9724   2.0627   2.0854   2.5563   2.6516

          k =-0.5000-1.4434 0.0000 (  8844 PWs)   bands (ev):

   -57.3968 -57.3890 -57.3868 -57.3734 -33.9136 -33.8999 -33.8898 -33.8718
   -33.7072 -33.6979 -33.6727 -33.6645 -33.6482 -33.6441 -33.5794 -33.5693
   -18.1037 -18.0846 -18.0777 -18.0729  -9.5691  -9.5683  -5.1817  -5.1721
    -5.1164  -5.1072  -4.6697  -4.6530  -4.2691  -4.2644  -4.0388  -4.0372
    -3.7745  -3.7630  -2.5117  -2.4981  -2.4583  -2.4162  -2.1612  -2.1585
     1.3044   1.3079   1.9648   1.9751   2.0835   2.0857   2.5509   2.5555

     the Fermi energy is     0.4431 ev

!    total energy              =    -939.19436539 Ry
     total all-electron energy =     -7585.801761 Ry
     estimated scf accuracy    <          4.2E-10 Ry
     smearing contrib. (-TS)   =      -0.00164952 Ry
     internal energy E=F+TS    =    -939.19271587 Ry

     The total energy is F=E-TS. E is the sum of the following terms:
     one-electron contribution =   -4506.27463452 Ry
     hartree contribution      =    2260.82616175 Ry
     xc contribution           =    -113.16523991 Ry
     ewald contribution        =    1731.45959234 Ry
     one-center paw contrib.   =    -312.03859553 Ry

     convergence has been achieved in  15 iterations

     negative rho (up, down):  4.385E-03 0.000E+00

     Forces acting on atoms (cartesian axes, Ry/au):

     atom    1 type  1   force =     0.00196464    0.00137913   -0.00011728
     atom    2 type  1   force =     0.00434964    0.00273343    0.00099856
     atom    3 type  2   force =    -0.00105936   -0.00079901   -0.00175361
     atom    4 type  3   force =    -0.00352002   -0.00214140   -0.00234677
     atom    5 type  3   force =    -0.00527264   -0.00320922    0.00333266
     atom    6 type  1   force =     0.00402102    0.00252092    0.00081127
     atom    7 type  1   force =     0.00187563    0.00126361    0.00211767
     atom    8 type  2   force =    -0.00291733   -0.00194737    0.00059409
     atom    9 type  3   force =    -0.00098988   -0.00059091   -0.00260029
     atom   10 type  3   force =     0.00154829    0.00079081   -0.00103630

     Total force =     0.012935     Total SCF correction =     0.000076
     Energy error            =      3.3E-04 Ry
     Gradient error          =      5.3E-03 Ry/Bohr

     number of scf cycles    =   7
     number of bfgs steps    =   6

     energy             old  =    -939.1940310416 Ry
     energy             new  =    -939.1943653910 Ry

     CASE: energy            _new < energy            _old

     new trust radius        =       0.0198477224 bohr
     new conv_thr            =       0.0000000003 Ry


ATOMIC_POSITIONS (angstrom)
Ti               0.0192024983        1.7624700977        8.3041250890
Ti               1.5285719271        0.8848305800       10.9145998695
C                3.0120964994       -0.0126505847        9.6139274811
O               -0.0137925244        1.7422917171       11.8263478979
O                1.5077762924        0.8701751719        7.3873051890
Ti               3.0441702182        1.7587189479        8.2988668322
Ti               4.5667452834        0.8879310898       10.9185549050
C                6.0469359038       -0.0107281523        9.6120698033
O                3.0256581046        1.7463369536       11.8264110124
O                4.5315161187        0.8652750445        7.3948287554



     Writing config-only to output data dir ./tmp/slab.save/ :
     XML data file
     NEW-OLD atomic charge density approx. for the potential

     Check: negative core charge=   -0.000006

     negative rho (up, down):  4.365E-03 0.000E+00

     total cpu time spent up to now is      392.0 secs

     Self-consistent Calculation

     iteration #  1     ecut=    40.00 Ry     beta= 0.70
     Davidson diagonalization with overlap
     ethr =  1.00E-06,  avg # of iterations =  7.0

     negative rho (up, down):  4.369E-03 0.000E+00

     total cpu time spent up to now is      397.3 secs

     total energy              =    -939.19444520 Ry
     estimated scf accuracy    <       0.00040382 Ry

     iteration #  2     ecut=    40.00 Ry     beta= 0.70
     Davidson diagonalization with overlap
     c_bands:  1 eigenvalues not converged
     ethr =  5.05E-07,  avg # of iterations = 12.3

     negative rho (up, down):  4.430E-03 0.000E+00

     total cpu time spent up to now is      404.3 secs

     total energy              =    -939.19406566 Ry
     estimated scf accuracy    <       0.00429096 Ry

     iteration #  3     ecut=    40.00 Ry     beta= 0.70
     Davidson diagonalization with overlap
     c_bands:  1 eigenvalues not converged
     c_bands:  4 eigenvalues not converged
     ethr =  5.05E-07,  avg # of iterations = 12.2

     negative rho (up, down):  4.443E-03 0.000E+00

     total cpu time spent up to now is      408.4 secs

     total energy              =    -939.19450905 Ry
     estimated scf accuracy    <       0.00117461 Ry

     iteration #  4     ecut=    40.00 Ry     beta= 0.70
     Davidson diagonalization with overlap
     ethr =  5.05E-07,  avg # of iterations =  6.7

     negative rho (up, down):  4.398E-03 0.000E+00

     total cpu time spent up to now is      411.8 secs

     total energy              =    -939.19464983 Ry
     estimated scf accuracy    <       0.00014054 Ry

     iteration #  5     ecut=    40.00 Ry     beta= 0.70
     Davidson diagonalization with overlap
     ethr =  1.76E-07,  avg # of iterations =  2.8

     negative rho (up, down):  4.386E-03 0.000E+00

     total cpu time spent up to now is      414.8 secs

     total energy              =    -939.19466991 Ry
     estimated scf accuracy    <       0.00001046 Ry

     iteration #  6     ecut=    40.00 Ry     beta= 0.70
     Davidson diagonalization with overlap
     ethr =  1.31E-08,  avg # of iterations =  7.8

     negative rho (up, down):  4.373E-03 0.000E+00

     total cpu time spent up to now is      418.5 secs

     total energy              =    -939.19467741 Ry
     estimated scf accuracy    <       0.00000254 Ry

     iteration #  7     ecut=    40.00 Ry     beta= 0.70
     Davidson diagonalization with overlap
     ethr =  3.18E-09,  avg # of iterations =  6.3

     negative rho (up, down):  4.372E-03 0.000E+00

     total cpu time spent up to now is      422.1 secs

     total energy              =    -939.19467800 Ry
     estimated scf accuracy    <       0.00000204 Ry

     iteration #  8     ecut=    40.00 Ry     beta= 0.70
     Davidson diagonalization with overlap
     ethr =  2.55E-09,  avg # of iterations =  3.0

     negative rho (up, down):  4.371E-03 0.000E+00

     total cpu time spent up to now is      424.8 secs

     total energy              =    -939.19467830 Ry
     estimated scf accuracy    <       0.00000036 Ry

     iteration #  9     ecut=    40.00 Ry     beta= 0.70
     Davidson diagonalization with overlap
     ethr =  4.54E-10,  avg # of iterations =  6.5

     negative rho (up, down):  4.371E-03 0.000E+00

     total cpu time spent up to now is      428.3 secs

     total energy              =    -939.19467843 Ry
     estimated scf accuracy    <       0.00000023 Ry

     iteration # 10     ecut=    40.00 Ry     beta= 0.70
     Davidson diagonalization with overlap
     ethr =  2.84E-10,  avg # of iterations =  2.0

     negative rho (up, down):  4.371E-03 0.000E+00

     total cpu time spent up to now is      431.0 secs

     total energy              =    -939.19467842 Ry
     estimated scf accuracy    <       0.00000009 Ry

     iteration # 11     ecut=    40.00 Ry     beta= 0.70
     Davidson diagonalization with overlap
     ethr =  1.11E-10,  avg # of iterations =  5.3

     negative rho (up, down):  4.371E-03 0.000E+00

     total cpu time spent up to now is      434.2 secs

     total energy              =    -939.19467844 Ry
     estimated scf accuracy    <          5.8E-09 Ry

     iteration # 12     ecut=    40.00 Ry     beta= 0.70
     Davidson diagonalization with overlap
     ethr =  7.29E-12,  avg # of iterations =  9.2

     negative rho (up, down):  4.371E-03 0.000E+00

     total cpu time spent up to now is      440.2 secs

     total energy              =    -939.19467845 Ry
     estimated scf accuracy    <          7.9E-09 Ry

     iteration # 13     ecut=    40.00 Ry     beta= 0.70
     Davidson diagonalization with overlap
     ethr =  7.29E-12,  avg # of iterations =  2.8

     negative rho (up, down):  4.371E-03 0.000E+00

     total cpu time spent up to now is      442.9 secs

     total energy              =    -939.19467845 Ry
     estimated scf accuracy    <          1.2E-09 Ry

     iteration # 14     ecut=    40.00 Ry     beta= 0.70
     Davidson diagonalization with overlap
     ethr =  1.51E-12,  avg # of iterations =  6.3

     negative rho (up, down):  4.371E-03 0.000E+00

     total cpu time spent up to now is      446.4 secs

     total energy              =    -939.19467845 Ry
     estimated scf accuracy    <          1.0E-09 Ry

     iteration # 15     ecut=    40.00 Ry     beta= 0.70
     Davidson diagonalization with overlap
     ethr =  1.31E-12,  avg # of iterations =  2.0

     negative rho (up, down):  4.371E-03 0.000E+00

     total cpu time spent up to now is      449.0 secs

     End of self-consistent calculation

          k = 0.0000 0.0000 0.0000 (  8909 PWs)   bands (ev):

   -57.4578 -57.4283 -57.3939 -57.3755 -33.9975 -33.9522 -33.8151 -33.6503
   -33.6255 -33.6173 -33.5783 -33.5637 -33.5134 -33.5014 -33.4853 -33.4741
   -18.5991 -18.5183 -18.1112 -18.0812 -10.7380  -9.4669  -6.0673  -5.5705
    -5.1980  -4.7249  -4.7231  -4.3709  -4.3699  -4.2221  -4.1728  -4.1711
    -3.9804  -3.7618  -3.2188  -1.5597  -1.2145  -0.8332   0.2470   0.2509
     0.6255   1.0009   1.0075   1.7310   1.7420   1.8196   1.8741   2.4673

          k = 0.0000 0.5773 0.0000 (  8890 PWs)   bands (ev):

   -57.4262 -57.4021 -57.3936 -57.3754 -33.8938 -33.8901 -33.7744 -33.7458
   -33.7201 -33.7031 -33.6647 -33.6435 -33.5764 -33.5720 -33.5566 -33.5256
   -18.3154 -18.2866 -18.0949 -18.0744 -10.3514  -9.5651  -5.3989  -5.1804
    -5.1085  -4.9005  -4.6584  -4.6241  -4.3520  -4.2754  -4.1564  -4.0353
    -3.7718  -3.6362  -2.5148  -2.4964  -2.4483  -2.1530  -1.0981  -1.0861
     0.8834   1.3097   1.7526   1.9728   2.0619   2.0840   2.5568   2.6555

          k = 0.0000-1.1547 0.0000 (  8960 PWs)   bands (ev):

   -57.3941 -57.3929 -57.3791 -57.3729 -34.0032 -33.9996 -33.9531 -33.9471
   -33.6518 -33.6500 -33.6112 -33.6110 -33.5804 -33.5760 -33.5692 -33.5676
   -18.1078 -18.1048 -18.0958 -18.0732  -9.4693  -9.4652  -6.0670  -6.0650
    -5.1993  -5.1978  -4.2097  -4.1949  -4.1750  -4.1712  -3.9943  -3.9918
    -3.7589  -3.7511  -3.2149  -3.2136  -1.5629  -1.5585  -1.2186  -1.2126
     0.6207   0.6302   1.8616   1.8646   2.4518   2.4556   2.4925   2.5079

          k =-0.5000-0.2887 0.0000 (  8936 PWs)   bands (ev):

   -57.4275 -57.4253 -57.4041 -57.3989 -33.7766 -33.7673 -33.7474 -33.7429
   -33.7259 -33.7156 -33.5759 -33.5739 -33.5676 -33.5643 -33.5216 -33.5160
   -18.3228 -18.3174 -18.2941 -18.2692 -10.3566 -10.3457  -5.4137  -5.3886
    -4.9048  -4.8956  -4.6302  -4.6155  -4.3757  -4.3572  -4.1592  -4.1347
    -3.6489  -3.6261  -2.5112  -2.5084  -1.1113  -1.1046  -1.0980  -1.0760
     0.8767   0.9124   1.7488   1.7516   2.0660   2.0786   2.6394   2.6685

          k =-0.5000 0.2887 0.0000 (  8890 PWs)   bands (ev):

   -57.4262 -57.4021 -57.3936 -57.3754 -33.8934 -33.8900 -33.7741 -33.7456
   -33.7211 -33.7027 -33.6648 -33.6445 -33.5766 -33.5718 -33.5564 -33.5252
   -18.3154 -18.2863 -18.0948 -18.0748 -10.3514  -9.5655  -5.3986  -5.1795
    -5.1108  -4.9002  -4.6563  -4.6243  -4.3499  -4.2770  -4.1558  -4.0352
    -3.7747  -3.6360  -2.5138  -2.4964  -2.4496  -2.1505  -1.0986  -1.0870
     0.8800   1.3117   1.7534   1.9721   2.0614   2.0836   2.5582   2.6542

          k =-0.5000-1.4434 0.0000 (  8844 PWs)   bands (ev):

   -57.3941 -57.3929 -57.3790 -57.3728 -33.9147 -33.9109 -33.8755 -33.8663
   -33.7013 -33.6990 -33.6686 -33.6677 -33.6473 -33.6422 -33.5743 -33.5695
   -18.0954 -18.0948 -18.0870 -18.0624  -9.5672  -9.5630  -5.1936  -5.1700
    -5.1106  -5.1009  -4.6624  -4.6575  -4.2703  -4.2569  -4.0545  -4.0325
    -3.7640  -3.7629  -2.5158  -2.4965  -2.4532  -2.4265  -2.1593  -2.1560
     1.3033   1.3150   1.9632   1.9732   2.0904   2.0910   2.5502   2.5599

     the Fermi energy is     0.4324 ev

!    total energy              =    -939.19467845 Ry
     total all-electron energy =     -7585.802074 Ry
     estimated scf accuracy    <          1.8E-10 Ry
     smearing contrib. (-TS)   =      -0.00137798 Ry
     internal energy E=F+TS    =    -939.19330047 Ry

     The total energy is F=E-TS. E is the sum of the following terms:
     one-electron contribution =   -4503.63081085 Ry
     hartree contribution      =    2259.50507741 Ry
     xc contribution           =    -113.16230474 Ry
     ewald contribution        =    1730.13316057 Ry
     one-center paw contrib.   =    -312.03842285 Ry

     convergence has been achieved in  15 iterations

     negative rho (up, down):  4.371E-03 0.000E+00

     Forces acting on atoms (cartesian axes, Ry/au):

     atom    1 type  1   force =     0.00148126    0.00114506    0.00049398
     atom    2 type  1   force =     0.00631182    0.00389847    0.00131779
     atom    3 type  2   force =    -0.00411782   -0.00260285   -0.00326191
     atom    4 type  3   force =    -0.00032344   -0.00038434   -0.00077036
     atom    5 type  3   force =    -0.00350650   -0.00218374    0.00388729
     atom    6 type  1   force =     0.00606537    0.00374290    0.00082684
     atom    7 type  1   force =     0.00036893    0.00048167    0.00196793
     atom    8 type  2   force =    -0.00211992   -0.00146161   -0.00340471
     atom    9 type  3   force =    -0.00338664   -0.00205268   -0.00342453
     atom   10 type  3   force =    -0.00077306   -0.00058288    0.00236767

     Total force =     0.015356     Total SCF correction =     0.000072
     Energy error            =      3.1E-04 Ry
     Gradient error          =      6.3E-03 Ry/Bohr

     number of scf cycles    =   8
     number of bfgs steps    =   7

     energy             old  =    -939.1943653910 Ry
     energy             new  =    -939.1946784475 Ry

     CASE: energy            _new < energy            _old

     new trust radius        =       0.0355729084 bohr
     new conv_thr            =       0.0000000003 Ry


ATOMIC_POSITIONS (angstrom)
Ti               0.0269953676        1.7677182251        8.3021705597
Ti               1.5384834742        0.8913203210       10.9154279491
C                3.0107886495       -0.0140114789        9.6119596123
O               -0.0223306189        1.7371491201       11.8218373587
O                1.4921002607        0.8606476872        7.3915296489
Ti               3.0553628777        1.7658308160        8.2991606632
Ti               4.5762434105        0.8939636602       10.9212164987
C                6.0346950252       -0.0186485211        9.6189241186
O                3.0215072387        1.7436883103       11.8294688403
O                4.5350346363        0.8669927253        7.3853415854



     Writing config-only to output data dir ./tmp/slab.save/ :
     XML data file
     NEW-OLD atomic charge density approx. for the potential

     Check: negative core charge=   -0.000006

     negative rho (up, down):  4.344E-03 0.000E+00

     total cpu time spent up to now is      451.1 secs

     Self-consistent Calculation

     iteration #  1     ecut=    40.00 Ry     beta= 0.70
     Davidson diagonalization with overlap
     ethr =  1.00E-06,  avg # of iterations = 10.3

     negative rho (up, down):  4.353E-03 0.000E+00

     total cpu time spent up to now is      457.8 secs

     total energy              =    -939.19460499 Ry
     estimated scf accuracy    <       0.00098411 Ry

     iteration #  2     ecut=    40.00 Ry     beta= 0.70
     Davidson diagonalization with overlap
     ethr =  1.23E-06,  avg # of iterations = 10.8

     negative rho (up, down):  4.525E-03 0.000E+00

     total cpu time spent up to now is      462.2 secs

     total energy              =    -939.19432747 Ry
     estimated scf accuracy    <       0.00324244 Ry

     iteration #  3     ecut=    40.00 Ry     beta= 0.70
     Davidson diagonalization with overlap
     c_bands:  1 eigenvalues not converged
     c_bands:  4 eigenvalues not converged
     c_bands:  1 eigenvalues not converged
     ethr =  1.23E-06,  avg # of iterations = 16.0

     negative rho (up, down):  4.597E-03 0.000E+00

     total cpu time spent up to now is      467.1 secs

     total energy              =    -939.19466876 Ry
     estimated scf accuracy    <       0.00277748 Ry

     iteration #  4     ecut=    40.00 Ry     beta= 0.70
     Davidson diagonalization with overlap
     ethr =  1.23E-06,  avg # of iterations = 12.7

     negative rho (up, down):  4.496E-03 0.000E+00

     total cpu time spent up to now is      472.7 secs

     total energy              =    -939.19494863 Ry
     estimated scf accuracy    <       0.00132874 Ry

     iteration #  5     ecut=    40.00 Ry     beta= 0.70
     Davidson diagonalization with overlap
     ethr =  1.23E-06,  avg # of iterations =  2.2

     negative rho (up, down):  4.418E-03 0.000E+00

     total cpu time spent up to now is      475.3 secs

     total energy              =    -939.19506258 Ry
     estimated scf accuracy    <       0.00004618 Ry

     iteration #  6     ecut=    40.00 Ry     beta= 0.70
     Davidson diagonalization with overlap
     ethr =  5.77E-08,  avg # of iterations =  8.2

     negative rho (up, down):  4.361E-03 0.000E+00

     total cpu time spent up to now is      479.3 secs

     total energy              =    -939.19510170 Ry
     estimated scf accuracy    <       0.00003738 Ry

     iteration #  7     ecut=    40.00 Ry     beta= 0.70
     Davidson diagonalization with overlap
     ethr =  4.67E-08,  avg # of iterations =  2.0

     negative rho (up, down):  4.354E-03 0.000E+00

     total cpu time spent up to now is      481.9 secs

     total energy              =    -939.19510229 Ry
     estimated scf accuracy    <       0.00002016 Ry

     iteration #  8     ecut=    40.00 Ry     beta= 0.70
     Davidson diagonalization with overlap
     ethr =  2.52E-08,  avg # of iterations =  2.0

     negative rho (up, down):  4.353E-03 0.000E+00

     total cpu time spent up to now is      484.5 secs

     total energy              =    -939.19510341 Ry
     estimated scf accuracy    <       0.00000391 Ry

     iteration #  9     ecut=    40.00 Ry     beta= 0.70
     Davidson diagonalization with overlap
     ethr =  4.88E-09,  avg # of iterations =  6.0

     negative rho (up, down):  4.354E-03 0.000E+00

     total cpu time spent up to now is      488.2 secs

     total energy              =    -939.19510472 Ry
     estimated scf accuracy    <       0.00000191 Ry

     iteration # 10     ecut=    40.00 Ry     beta= 0.70
     Davidson diagonalization with overlap
     ethr =  2.38E-09,  avg # of iterations =  4.3

     negative rho (up, down):  4.354E-03 0.000E+00

     total cpu time spent up to now is      490.9 secs

     total energy              =    -939.19510482 Ry
     estimated scf accuracy    <       0.00000107 Ry

     iteration # 11     ecut=    40.00 Ry     beta= 0.70
     Davidson diagonalization with overlap
     ethr =  1.33E-09,  avg # of iterations =  2.0

     negative rho (up, down):  4.354E-03 0.000E+00

     total cpu time spent up to now is      493.5 secs

     total energy              =    -939.19510484 Ry
     estimated scf accuracy    <       0.00000035 Ry

     iteration # 12     ecut=    40.00 Ry     beta= 0.70
     Davidson diagonalization with overlap
     ethr =  4.37E-10,  avg # of iterations =  3.7

     negative rho (up, down):  4.354E-03 0.000E+00

     total cpu time spent up to now is      496.3 secs

     total energy              =    -939.19510488 Ry
     estimated scf accuracy    <       0.00000006 Ry

     iteration # 13     ecut=    40.00 Ry     beta= 0.70
     Davidson diagonalization with overlap
     ethr =  7.32E-11,  avg # of iterations =  6.2

     negative rho (up, down):  4.354E-03 0.000E+00

     total cpu time spent up to now is      500.1 secs

     total energy              =    -939.19510491 Ry
     estimated scf accuracy    <       0.00000002 Ry

     iteration # 14     ecut=    40.00 Ry     beta= 0.70
     Davidson diagonalization with overlap
     ethr =  2.87E-11,  avg # of iterations =  2.0

     negative rho (up, down):  4.354E-03 0.000E+00

     total cpu time spent up to now is      502.6 secs

     total energy              =    -939.19510491 Ry
     estimated scf accuracy    <          4.7E-09 Ry

     iteration # 15     ecut=    40.00 Ry     beta= 0.70
     Davidson diagonalization with overlap
     ethr =  5.82E-12,  avg # of iterations =  6.7

     negative rho (up, down):  4.354E-03 0.000E+00

     total cpu time spent up to now is      507.9 secs

     total energy              =    -939.19510491 Ry
     estimated scf accuracy    <          1.6E-09 Ry

     iteration # 16     ecut=    40.00 Ry     beta= 0.70
     Davidson diagonalization with overlap
     ethr =  1.95E-12,  avg # of iterations =  2.3

     negative rho (up, down):  4.354E-03 0.000E+00

     total cpu time spent up to now is      510.7 secs

     total energy              =    -939.19510491 Ry
     estimated scf accuracy    <          7.3E-10 Ry

     iteration # 17     ecut=    40.00 Ry     beta= 0.70
     Davidson diagonalization with overlap
     ethr =  9.10E-13,  avg # of iterations =  6.5

     negative rho (up, down):  4.354E-03 0.000E+00

     total cpu time spent up to now is      513.7 secs

     End of self-consistent calculation

          k = 0.0000 0.0000 0.0000 (  8909 PWs)   bands (ev):

   -57.4437 -57.4152 -57.3791 -57.3502 -33.9860 -33.9352 -33.7999 -33.6385
   -33.6081 -33.6067 -33.5600 -33.5474 -33.5043 -33.4863 -33.4687 -33.4476
   -18.5983 -18.5197 -18.1074 -18.0802 -10.7260  -9.4513  -6.0611  -5.5648
    -5.1984  -4.7235  -4.7199  -4.3750  -4.3662  -4.2320  -4.1829  -4.1463
    -3.9601  -3.7640  -3.2150  -1.5624  -1.2040  -0.8365   0.1970   0.2094
     0.6423   1.0801   1.0902   1.7262   1.7517   1.8468   1.8880   2.4808

          k = 0.0000 0.5773 0.0000 (  8890 PWs)   bands (ev):

   -57.4129 -57.3927 -57.3779 -57.3465 -33.8827 -33.8742 -33.7630 -33.7321
   -33.7065 -33.6892 -33.6484 -33.6229 -33.5650 -33.5511 -33.5382 -33.5085
   -18.3158 -18.2893 -18.0869 -18.0739 -10.3373  -9.5496  -5.3939  -5.1800
    -5.1059  -4.9002  -4.6545  -4.6219  -4.3545  -4.2725  -4.1501  -4.0342
    -3.7674  -3.6408  -2.5071  -2.4910  -2.4342  -2.1389  -1.0932  -1.0725
     0.8981   1.3236   1.7649   1.9821   2.0669   2.1020   2.5736   2.6747

          k = 0.0000-1.1547 0.0000 (  8960 PWs)   bands (ev):

   -57.3852 -57.3749 -57.3742 -57.3373 -33.9911 -33.9902 -33.9421 -33.9237
   -33.6458 -33.6277 -33.5981 -33.5931 -33.5743 -33.5553 -33.5533 -33.5422
   -18.1300 -18.1112 -18.0719 -18.0615  -9.4563  -9.4481  -6.0741  -6.0438
    -5.2188  -5.1811  -4.2430  -4.1827  -4.1703  -4.1657  -3.9878  -3.9770
    -3.7652  -3.7356  -3.2180  -3.1930  -1.5607  -1.5544  -1.2119  -1.1959
     0.6502   0.6551   1.8708   1.8789   2.4487   2.4647   2.5170   2.5339

          k =-0.5000-0.2887 0.0000 (  8936 PWs)   bands (ev):

   -57.4169 -57.4113 -57.3957 -57.3647 -33.7681 -33.7514 -33.7384 -33.7253
   -33.7091 -33.6948 -33.5642 -33.5584 -33.5545 -33.5515 -33.5160 -33.4781
   -18.3401 -18.3161 -18.2894 -18.2540 -10.3469 -10.3279  -5.4015  -5.3939
    -4.8997  -4.8933  -4.6287  -4.6062  -4.4013  -4.3433  -4.1644  -4.1085
    -3.6474  -3.6404  -2.5063  -2.4802  -1.1164  -1.1043  -1.0887  -1.0859
     0.8905   0.9488   1.7539   1.7676   2.0699   2.1081   2.6550   2.6985

          k =-0.5000 0.2887 0.0000 (  8890 PWs)   bands (ev):

   -57.4129 -57.3927 -57.3779 -57.3465 -33.8810 -33.8757 -33.7625 -33.7317
   -33.7080 -33.6883 -33.6482 -33.6245 -33.5652 -33.5511 -33.5380 -33.5078
   -18.3155 -18.2893 -18.0867 -18.0743 -10.3372  -9.5500  -5.3933  -5.1780
    -5.1091  -4.9002  -4.6519  -4.6225  -4.3508  -4.2753  -4.1515  -4.0320
    -3.7718  -3.6408  -2.5055  -2.4901  -2.4370  -2.1366  -1.0939  -1.0705
     0.8941   1.3248   1.7656   1.9808   2.0650   2.1013   2.5753   2.6733

          k =-0.5000-1.4434 0.0000 (  8844 PWs)   bands (ev):

   -57.3852 -57.3749 -57.3742 -57.3372 -33.9088 -33.9045 -33.8669 -33.8287
   -33.6958 -33.6778 -33.6610 -33.6496 -33.6339 -33.6180 -33.5680 -33.5410
   -18.1179 -18.1020 -18.0627 -18.0501  -9.5546  -9.5448  -5.2263  -5.1634
    -5.0930  -5.0862  -4.6657  -4.6487  -4.2761  -4.2359  -4.0802  -4.0386
    -3.7487  -3.7372  -2.5141  -2.5032  -2.4319  -2.4184  -2.1498  -2.1368
     1.3168   1.3359   1.9613   1.9895   2.1116   2.1239   2.5615   2.5752

     the Fermi energy is     0.4110 ev

!    total energy              =    -939.19510491 Ry
     total all-electron energy =     -7585.802500 Ry
     estimated scf accuracy    <          5.2E-11 Ry
     smearing contrib. (-TS)   =      -0.00060611 Ry
     internal energy E=F+TS    =    -939.19449881 Ry

     The total energy is F=E-TS. E is the sum of the following terms:
     one-electron contribution =   -4501.77440465 Ry
     hartree contribution      =    2258.60536985 Ry
     xc contribution           =    -113.16717667 Ry
     ewald contribution        =    1729.17991443 Ry
     one-center paw contrib.   =    -312.03820177 Ry

     convergence has been achieved in  17 iterations

     negative rho (up, down):  4.354E-03 0.000E+00

     Forces acting on atoms (cartesian axes, Ry/au):

     atom    1 type  1   force =     0.00123794    0.00096384    0.00153333
     atom    2 type  1   force =     0.00673300    0.00418320    0.00078737
     atom    3 type  2   force =    -0.00724499   -0.00443974   -0.00341176
     atom    4 type  3   force =     0.00473287    0.00239984    0.00177835
     atom    5 type  3   force =    -0.00020440   -0.00016202    0.00306346
     atom    6 type  1   force =     0.00753764    0.00460959    0.00062853
     atom    7 type  1   force =    -0.00132215   -0.00041130   -0.00014603
     atom    8 type  2   force =    -0.00120848   -0.00083851   -0.00749066
     atom    9 type  3   force =    -0.00564319   -0.00348921   -0.00313619
     atom   10 type  3   force =    -0.00461825   -0.00281569    0.00639361

     Total force =     0.021343     Total SCF correction =     0.000019
     Energy error            =      4.3E-04 Ry
     Gradient error          =      7.5E-03 Ry/Bohr

     number of scf cycles    =   9
     number of bfgs steps    =   8

     energy             old  =    -939.1946784475 Ry
     energy             new  =    -939.1951049115 Ry

     CASE: energy            _new < energy            _old

     new trust radius        =       0.0312690139 bohr
     new conv_thr            =       0.0000000004 Ry


ATOMIC_POSITIONS (angstrom)
Ti               0.0344254348        1.7727575339        8.3017484709
Ti               1.5499170898        0.8987230151       10.9158353159
C                3.0059470546       -0.0174574588        9.6091566795
O               -0.0275500972        1.7337469021       11.8186375195
O                1.4788498143        0.8525901761        7.3973003003
Ti               3.0685301397        1.7741134975        8.3002471917
Ti               4.5838317078        0.8989883894       10.9225237074
C                6.0238223069       -0.0257096430        9.6209374323
O                3.0155976662        1.7399729634       11.8292869799
O                4.5355092046        0.8669254896        7.3813632372



     Writing config-only to output data dir ./tmp/slab.save/ :
     XML data file
     NEW-OLD atomic charge density approx. for the potential

     Check: negative core charge=   -0.000006

     negative rho (up, down):  4.340E-03 0.000E+00

     total cpu time spent up to now is      515.9 secs

     Self-consistent Calculation

     iteration #  1     ecut=    40.00 Ry     beta= 0.70
     Davidson diagonalization with overlap
     ethr =  1.00E-06,  avg # of iterations =  9.0

     negative rho (up, down):  4.348E-03 0.000E+00

     total cpu time spent up to now is      522.4 secs

     total energy              =    -939.19509369 Ry
     estimated scf accuracy    <       0.00075608 Ry

     iteration #  2     ecut=    40.00 Ry     beta= 0.70
     Davidson diagonalization with overlap
     ethr =  9.45E-07,  avg # of iterations =  7.2

     negative rho (up, down):  4.511E-03 0.000E+00

     total cpu time spent up to now is      526.2 secs

     total energy              =    -939.19495637 Ry
     estimated scf accuracy    <       0.00180141 Ry

     iteration #  3     ecut=    40.00 Ry     beta= 0.70
     Davidson diagonalization with overlap
     c_bands:  1 eigenvalues not converged
     c_bands:  3 eigenvalues not converged
     ethr =  9.45E-07,  avg # of iterations = 12.5

     negative rho (up, down):  4.572E-03 0.000E+00

     total cpu time spent up to now is      530.3 secs

     total energy              =    -939.19504707 Ry
     estimated scf accuracy    <       0.00401713 Ry

     iteration #  4     ecut=    40.00 Ry     beta= 0.70
     Davidson diagonalization with overlap
     ethr =  9.45E-07,  avg # of iterations =  9.8

     negative rho (up, down):  4.500E-03 0.000E+00

     total cpu time spent up to now is      533.9 secs

     total energy              =    -939.19542129 Ry
     estimated scf accuracy    <       0.00035000 Ry

     iteration #  5     ecut=    40.00 Ry     beta= 0.70
     Davidson diagonalization with overlap
     ethr =  4.37E-07,  avg # of iterations =  2.2

     negative rho (up, down):  4.399E-03 0.000E+00

     total cpu time spent up to now is      536.5 secs

     total energy              =    -939.19547768 Ry
     estimated scf accuracy    <       0.00001702 Ry

     iteration #  6     ecut=    40.00 Ry     beta= 0.70
     Davidson diagonalization with overlap
     ethr =  2.13E-08,  avg # of iterations = 10.0

     negative rho (up, down):  4.352E-03 0.000E+00

     total cpu time spent up to now is      543.0 secs

     total energy              =    -939.19550094 Ry
     estimated scf accuracy    <       0.00003172 Ry

     iteration #  7     ecut=    40.00 Ry     beta= 0.70
     Davidson diagonalization with overlap
     ethr =  2.13E-08,  avg # of iterations =  3.5

     negative rho (up, down):  4.345E-03 0.000E+00

     total cpu time spent up to now is      545.8 secs

     total energy              =    -939.19550201 Ry
     estimated scf accuracy    <       0.00001083 Ry

     iteration #  8     ecut=    40.00 Ry     beta= 0.70
     Davidson diagonalization with overlap
     ethr =  1.35E-08,  avg # of iterations =  5.0

     negative rho (up, down):  4.345E-03 0.000E+00

     total cpu time spent up to now is      548.8 secs

     total energy              =    -939.19550394 Ry
     estimated scf accuracy    <       0.00000141 Ry

     iteration #  9     ecut=    40.00 Ry     beta= 0.70
     Davidson diagonalization with overlap
     ethr =  1.76E-09,  avg # of iterations =  7.0

     negative rho (up, down):  4.345E-03 0.000E+00

     total cpu time spent up to now is      552.8 secs

     total energy              =    -939.19550480 Ry
     estimated scf accuracy    <       0.00000318 Ry

     iteration # 10     ecut=    40.00 Ry     beta= 0.70
     Davidson diagonalization with overlap
     ethr =  1.76E-09,  avg # of iterations =  3.2

     negative rho (up, down):  4.345E-03 0.000E+00

     total cpu time spent up to now is      556.0 secs

     total energy              =    -939.19550463 Ry
     estimated scf accuracy    <       0.00000139 Ry

     iteration # 11     ecut=    40.00 Ry     beta= 0.70
     Davidson diagonalization with overlap
     ethr =  1.74E-09,  avg # of iterations =  2.0

     negative rho (up, down):  4.345E-03 0.000E+00

     total cpu time spent up to now is      559.3 secs

     total energy              =    -939.19550469 Ry
     estimated scf accuracy    <       0.00000029 Ry

     iteration # 12     ecut=    40.00 Ry     beta= 0.70
     Davidson diagonalization with overlap
     ethr =  3.57E-10,  avg # of iterations =  6.5

     negative rho (up, down):  4.345E-03 0.000E+00

     total cpu time spent up to now is      563.2 secs

     total energy              =    -939.19550478 Ry
     estimated scf accuracy    <       0.00000001 Ry

     iteration # 13     ecut=    40.00 Ry     beta= 0.70
     Davidson diagonalization with overlap
     ethr =  1.72E-11,  avg # of iterations =  8.2

     negative rho (up, down):  4.345E-03 0.000E+00

     total cpu time spent up to now is      567.7 secs

     total energy              =    -939.19550479 Ry
     estimated scf accuracy    <       0.00000002 Ry

     iteration # 14     ecut=    40.00 Ry     beta= 0.70
     Davidson diagonalization with overlap
     ethr =  1.72E-11,  avg # of iterations =  2.0

     negative rho (up, down):  4.345E-03 0.000E+00

     total cpu time spent up to now is      570.7 secs

     total energy              =    -939.19550480 Ry
     estimated scf accuracy    <          1.6E-09 Ry

     iteration # 15     ecut=    40.00 Ry     beta= 0.70
     Davidson diagonalization with overlap
     ethr =  1.94E-12,  avg # of iterations =  6.8

     negative rho (up, down):  4.345E-03 0.000E+00

     total cpu time spent up to now is      576.7 secs

     total energy              =    -939.19550480 Ry
     estimated scf accuracy    <          2.8E-09 Ry

     iteration # 16     ecut=    40.00 Ry     beta= 0.70
     Davidson diagonalization with overlap
     ethr =  1.94E-12,  avg # of iterations =  1.3

     negative rho (up, down):  4.345E-03 0.000E+00

     total cpu time spent up to now is      579.2 secs

     total energy              =    -939.19550480 Ry
     estimated scf accuracy    <          1.5E-09 Ry

     iteration # 17     ecut=    40.00 Ry     beta= 0.70
     Davidson diagonalization with overlap
     ethr =  1.93E-12,  avg # of iterations =  2.3

     negative rho (up, down):  4.345E-03 0.000E+00

     total cpu time spent up to now is      582.1 secs

     End of self-consistent calculation

          k = 0.0000 0.0000 0.0000 (  8909 PWs)   bands (ev):

   -57.4185 -57.3951 -57.3494 -57.3273 -33.9737 -33.9066 -33.7776 -33.6177
   -33.5845 -33.5840 -33.5370 -33.5273 -33.4814 -33.4704 -33.4392 -33.4237
   -18.5981 -18.5180 -18.1017 -18.0841 -10.7111  -9.4361  -6.0561  -5.5587
    -5.1993  -4.7308  -4.7204  -4.3818  -4.3639  -4.2482  -4.1805  -4.1277
    -3.9429  -3.7674  -3.2088  -1.5630  -1.1951  -0.8402   0.1323   0.1535
     0.6708   1.1793   1.1956   1.7287   1.7670   1.8718   1.9282   2.4995

          k = 0.0000 0.5773 0.0000 (  8890 PWs)   bands (ev):

   -57.3885 -57.3733 -57.3474 -57.3227 -33.8714 -33.8463 -33.7424 -33.7110
   -33.6872 -33.6658 -33.6268 -33.5988 -33.5422 -33.5290 -33.5135 -33.4842
   -18.3174 -18.2830 -18.0813 -18.0765 -10.3218  -9.5341  -5.3901  -5.1788
    -5.1038  -4.9015  -4.6544  -4.6200  -4.3632  -4.2716  -4.1416  -4.0365
    -3.7628  -3.6488  -2.5085  -2.4715  -2.4175  -2.1175  -1.0992  -1.0484
     0.9199   1.3443   1.7831   1.9950   2.0803   2.1298   2.5988   2.7027

          k = 0.0000-1.1547 0.0000 (  8960 PWs)   bands (ev):

   -57.3643 -57.3550 -57.3413 -57.3127 -33.9707 -33.9696 -33.9230 -33.9052
   -33.6276 -33.6008 -33.5772 -33.5706 -33.5550 -33.5320 -33.5262 -33.5180
   -18.1320 -18.0978 -18.0748 -18.0587  -9.4410  -9.4329  -6.0755  -6.0320
    -5.2300  -5.1737  -4.2646  -4.1940  -4.1655  -4.1591  -3.9797  -3.9577
    -3.7611  -3.7246  -3.2100  -3.1701  -1.5555  -1.5485  -1.2115  -1.1821
     0.6851   0.7030   1.8894   1.9006   2.4560   2.4752   2.5510   2.5619

          k =-0.5000-0.2887 0.0000 (  8936 PWs)   bands (ev):

   -57.3955 -57.3871 -57.3679 -57.3401 -33.7554 -33.7331 -33.7206 -33.7022
   -33.6799 -33.6676 -33.5407 -33.5363 -33.5322 -33.5270 -33.4970 -33.4521
   -18.3387 -18.3137 -18.2839 -18.2596 -10.3389 -10.3055  -5.4021  -5.3903
    -4.9020  -4.8860  -4.6258  -4.5986  -4.4297  -4.3378  -4.1531  -4.1051
    -3.6611  -3.6447  -2.4940  -2.4531  -1.1237  -1.1170  -1.0881  -1.0777
     0.9051   1.0116   1.7685   1.7860   2.0861   2.1518   2.6882   2.7301

          k =-0.5000 0.2887 0.0000 (  8890 PWs)   bands (ev):

   -57.3885 -57.3733 -57.3474 -57.3227 -33.8689 -33.8487 -33.7417 -33.7104
   -33.6892 -33.6645 -33.6266 -33.6006 -33.5425 -33.5290 -33.5127 -33.4840
   -18.3167 -18.2831 -18.0820 -18.0763 -10.3217  -9.5345  -5.3891  -5.1758
    -5.1080  -4.9018  -4.6509  -4.6214  -4.3571  -4.2762  -4.1455  -4.0320
    -3.7694  -3.6488  -2.5053  -2.4711  -2.4217  -2.1149  -1.0993  -1.0437
     0.9143   1.3449   1.7836   1.9934   2.0766   2.1283   2.6011   2.7017

          k =-0.5000-1.4434 0.0000 (  8844 PWs)   bands (ev):

   -57.3643 -57.3549 -57.3413 -57.3127 -33.8911 -33.8861 -33.8462 -33.8051
   -33.6830 -33.6590 -33.6429 -33.6239 -33.6052 -33.5861 -33.5484 -33.5158
   -18.1195 -18.0888 -18.0634 -18.0499  -9.5389  -9.5286  -5.2431  -5.1828
    -5.0739  -5.0619  -4.6729  -4.6451  -4.2745  -4.2251  -4.0965  -4.0635
    -3.7265  -3.7009  -2.5174  -2.5074  -2.4282  -2.3765  -2.1352  -2.1183
     1.3412   1.3571   1.9783   2.0038   2.1394   2.1635   2.5813   2.5917

     the Fermi energy is     0.3755 ev

!    total energy              =    -939.19550480 Ry
     total all-electron energy =     -7585.802900 Ry
     estimated scf accuracy    <          1.7E-10 Ry
     smearing contrib. (-TS)   =       0.00018850 Ry
     internal energy E=F+TS    =    -939.19569330 Ry

     The total energy is F=E-TS. E is the sum of the following terms:
     one-electron contribution =   -4502.90955585 Ry
     hartree contribution      =    2259.21481812 Ry
     xc contribution           =    -113.18089474 Ry
     ewald contribution        =    1729.71807018 Ry
     one-center paw contrib.   =    -312.03813102 Ry

     convergence has been achieved in  17 iterations

     negative rho (up, down):  4.345E-03 0.000E+00

     Forces acting on atoms (cartesian axes, Ry/au):

     atom    1 type  1   force =     0.00115725    0.00070921    0.00220868
     atom    2 type  1   force =     0.00342004    0.00223973   -0.00041778
     atom    3 type  2   force =    -0.00705587   -0.00426560   -0.00159833
     atom    4 type  3   force =     0.00791029    0.00415728    0.00329010
     atom    5 type  3   force =     0.00266614    0.00172182    0.00058492
     atom    6 type  1   force =     0.00590085    0.00355162    0.00021924
     atom    7 type  1   force =    -0.00220964   -0.00095631   -0.00264359
     atom    8 type  2   force =    -0.00007015   -0.00001933   -0.00797002
     atom    9 type  3   force =    -0.00468045   -0.00302308   -0.00132662
     atom   10 type  3   force =    -0.00703846   -0.00411534    0.00765340

     Total force =     0.021838     Total SCF correction =     0.000048
     Energy error            =      4.0E-04 Ry
     Gradient error          =      8.0E-03 Ry/Bohr

     number of scf cycles    =  10
     number of bfgs steps    =   9

     energy             old  =    -939.1951049115 Ry
     energy             new  =    -939.1955047977 Ry

     CASE: energy            _new < energy            _old

     new trust radius        =       0.0216545985 bohr
     new conv_thr            =       0.0000000004 Ry


ATOMIC_POSITIONS (angstrom)
Ti               0.0383508502        1.7753764141        8.3038123301
Ti               1.5573444984        0.9035167670       10.9151948359
C                2.9988415614       -0.0219721200        9.6069556979
O               -0.0258400663        1.7342332089       11.8184633230
O                1.4747276774        0.8501539864        7.4022330202
Ti               3.0781702780        1.7800646972        8.3019683503
Ti               4.5854756255        0.9004271626       10.9210409336
C                6.0197301842       -0.0283890154        9.6158357820
O                3.0107544141        1.7369131155       11.8248824233
O                4.5313252985        0.8643266490        7.3866501382



     Writing config-only to output data dir ./tmp/slab.save/ :
     XML data file
     NEW-OLD atomic charge density approx. for the potential

     Check: negative core charge=   -0.000006

     negative rho (up, down):  4.358E-03 0.000E+00

     total cpu time spent up to now is      584.3 secs

     Self-consistent Calculation

     iteration #  1     ecut=    40.00 Ry     beta= 0.70
     Davidson diagonalization with overlap
     ethr =  1.00E-06,  avg # of iterations =  7.0

     negative rho (up, down):  4.358E-03 0.000E+00

     total cpu time spent up to now is      589.8 secs

     total energy              =    -939.19558244 Ry
     estimated scf accuracy    <       0.00056667 Ry

     iteration #  2     ecut=    40.00 Ry     beta= 0.70
     Davidson diagonalization with overlap
     c_bands:  1 eigenvalues not converged
     c_bands:  3 eigenvalues not converged
     c_bands:  1 eigenvalues not converged
     ethr =  7.08E-07,  avg # of iterations = 15.8

     negative rho (up, down):  4.487E-03 0.000E+00

     total cpu time spent up to now is      595.0 secs

     total energy              =    -939.19470814 Ry
     estimated scf accuracy    <       0.01189136 Ry

     iteration #  3     ecut=    40.00 Ry     beta= 0.70
     Davidson diagonalization with overlap
     c_bands:  1 eigenvalues not converged
     c_bands:  3 eigenvalues not converged
     ethr =  7.08E-07,  avg # of iterations = 14.0

     negative rho (up, down):  4.484E-03 0.000E+00

     total cpu time spent up to now is      599.4 secs

     total energy              =    -939.19580377 Ry
     estimated scf accuracy    <       0.00082187 Ry

     iteration #  4     ecut=    40.00 Ry     beta= 0.70
     Davidson diagonalization with overlap
     ethr =  7.08E-07,  avg # of iterations =  2.7

     negative rho (up, down):  4.406E-03 0.000E+00

     total cpu time spent up to now is      602.2 secs

     total energy              =    -939.19592900 Ry
     estimated scf accuracy    <       0.00009043 Ry

     iteration #  5     ecut=    40.00 Ry     beta= 0.70
     Davidson diagonalization with overlap
     ethr =  1.13E-07,  avg # of iterations =  5.7

     negative rho (up, down):  4.400E-03 0.000E+00

     total cpu time spent up to now is      605.4 secs

     total energy              =    -939.19595151 Ry
     estimated scf accuracy    <       0.00001946 Ry

     iteration #  6     ecut=    40.00 Ry     beta= 0.70
     Davidson diagonalization with overlap
     ethr =  2.43E-08,  avg # of iterations =  6.3

     negative rho (up, down):  4.358E-03 0.000E+00

     total cpu time spent up to now is      610.5 secs

     total energy              =    -939.19595987 Ry
     estimated scf accuracy    <       0.00000649 Ry

     iteration #  7     ecut=    40.00 Ry     beta= 0.70
     Davidson diagonalization with overlap
     ethr =  8.11E-09,  avg # of iterations =  6.0

     negative rho (up, down):  4.354E-03 0.000E+00

     total cpu time spent up to now is      613.9 secs

     total energy              =    -939.19596205 Ry
     estimated scf accuracy    <       0.00000252 Ry

     iteration #  8     ecut=    40.00 Ry     beta= 0.70
     Davidson diagonalization with overlap
     ethr =  3.15E-09,  avg # of iterations =  4.3

     negative rho (up, down):  4.352E-03 0.000E+00

     total cpu time spent up to now is      617.1 secs

     total energy              =    -939.19596257 Ry
     estimated scf accuracy    <       0.00000109 Ry

     iteration #  9     ecut=    40.00 Ry     beta= 0.70
     Davidson diagonalization with overlap
     ethr =  1.36E-09,  avg # of iterations =  2.8

     negative rho (up, down):  4.352E-03 0.000E+00

     total cpu time spent up to now is      620.1 secs

     total energy              =    -939.19596265 Ry
     estimated scf accuracy    <       0.00000028 Ry

     iteration # 10     ecut=    40.00 Ry     beta= 0.70
     Davidson diagonalization with overlap
     ethr =  3.46E-10,  avg # of iterations =  6.8

     negative rho (up, down):  4.352E-03 0.000E+00

     total cpu time spent up to now is      623.9 secs

     total energy              =    -939.19596276 Ry
     estimated scf accuracy    <       0.00000012 Ry

     iteration # 11     ecut=    40.00 Ry     beta= 0.70
     Davidson diagonalization with overlap
     ethr =  1.48E-10,  avg # of iterations =  2.0

     negative rho (up, down):  4.352E-03 0.000E+00

     total cpu time spent up to now is      626.6 secs

     total energy              =    -939.19596276 Ry
     estimated scf accuracy    <       0.00000002 Ry

     iteration # 12     ecut=    40.00 Ry     beta= 0.70
     Davidson diagonalization with overlap
     ethr =  2.94E-11,  avg # of iterations =  6.2

     negative rho (up, down):  4.352E-03 0.000E+00

     total cpu time spent up to now is      630.0 secs

     total energy              =    -939.19596277 Ry
     estimated scf accuracy    <          8.1E-09 Ry

     iteration # 13     ecut=    40.00 Ry     beta= 0.70
     Davidson diagonalization with overlap
     ethr =  1.02E-11,  avg # of iterations =  2.0

     negative rho (up, down):  4.352E-03 0.000E+00

     total cpu time spent up to now is      632.7 secs

     total energy              =    -939.19596277 Ry
     estimated scf accuracy    <          2.8E-09 Ry

     iteration # 14     ecut=    40.00 Ry     beta= 0.70
     Davidson diagonalization with overlap
     ethr =  3.44E-12,  avg # of iterations =  2.0

     negative rho (up, down):  4.352E-03 0.000E+00

     total cpu time spent up to now is      635.6 secs

     total energy              =    -939.19596277 Ry
     estimated scf accuracy    <          4.8E-10 Ry

     iteration # 15     ecut=    40.00 Ry     beta= 0.70
     Davidson diagonalization with overlap
     ethr =  5.95E-13,  avg # of iterations =  6.0

     negative rho (up, down):  4.352E-03 0.000E+00

     total cpu time spent up to now is      639.5 secs

     End of self-consistent calculation

          k = 0.0000 0.0000 0.0000 (  8909 PWs)   bands (ev):

   -57.3975 -57.3700 -57.3282 -57.3157 -33.9683 -33.8782 -33.7601 -33.5961
   -33.5689 -33.5604 -33.5197 -33.5110 -33.4655 -33.4551 -33.4193 -33.4079
   -18.5987 -18.5146 -18.0988 -18.0895 -10.7011  -9.4311  -6.0559  -5.5563
    -5.1992  -4.7389  -4.7254  -4.3795  -4.3659  -4.2760  -4.1631  -4.1314
    -3.9398  -3.7716  -3.2028  -1.5570  -1.1919  -0.8387   0.0897   0.1123
     0.7013   1.2432   1.2583   1.7417   1.7793   1.8960   1.9638   2.5122

          k = 0.0000 0.5773 0.0000 (  8890 PWs)   bands (ev):

   -57.3669 -57.3456 -57.3264 -57.3139 -33.8666 -33.8188 -33.7231 -33.6924
   -33.6695 -33.6448 -33.6119 -33.5849 -33.5224 -33.5130 -33.5034 -33.4587
   -18.3191 -18.2732 -18.0903 -18.0703 -10.3140  -9.5285  -5.3891  -5.1777
    -5.1041  -4.9036  -4.6571  -4.6194  -4.3693  -4.2737  -4.1384  -4.0435
    -3.7612  -3.6550  -2.5013  -2.4624  -2.4091  -2.0987  -1.1020  -1.0406
     0.9369   1.3612   1.7992   2.0056   2.0974   2.1529   2.6203   2.7255

          k = 0.0000-1.1547 0.0000 (  8960 PWs)   bands (ev):

   -57.3417 -57.3251 -57.3206 -57.3067 -33.9512 -33.9490 -33.9052 -33.9007
   -33.6054 -33.5884 -33.5635 -33.5574 -33.5302 -33.5121 -33.5066 -33.4996
   -18.1122 -18.1086 -18.0670 -18.0662  -9.4316  -9.4300  -6.0675  -6.0403
    -5.2227  -5.1823  -4.2523  -4.2262  -4.1612  -4.1561  -3.9755  -3.9470
    -3.7478  -3.7255  -3.1912  -3.1573  -1.5479  -1.5435  -1.2132  -1.1890
     0.7159   0.7355   1.9084   1.9172   2.4718   2.4782   2.5714   2.5788

          k =-0.5000-0.2887 0.0000 (  8936 PWs)   bands (ev):

   -57.3724 -57.3613 -57.3432 -57.3348 -33.7434 -33.7293 -33.6990 -33.6880
   -33.6526 -33.6431 -33.5175 -33.5130 -33.5121 -33.5052 -33.4719 -33.4565
   -18.3169 -18.3112 -18.2887 -18.2785 -10.3285 -10.2999  -5.4085  -5.3863
    -4.9051  -4.8865  -4.6202  -4.6008  -4.4247  -4.3681  -4.1423  -4.1201
    -3.6724  -3.6445  -2.4814  -2.4456  -1.1208  -1.1104  -1.0884  -1.0848
     0.9473   1.0338   1.7812   1.8028   2.1187   2.1763   2.7231   2.7430

          k =-0.5000 0.2887 0.0000 (  8890 PWs)   bands (ev):

   -57.3669 -57.3456 -57.3264 -57.3138 -33.8637 -33.8215 -33.7229 -33.6914
   -33.6717 -33.6440 -33.6112 -33.5864 -33.5228 -33.5127 -33.5015 -33.4594
   -18.3180 -18.2735 -18.0912 -18.0701 -10.3138  -9.5291  -5.3875  -5.1744
    -5.1090  -4.9038  -4.6529  -4.6210  -4.3610  -4.2802  -4.1434  -4.0378
    -3.7697  -3.6548  -2.4975  -2.4621  -2.4142  -2.0951  -1.1023  -1.0342
     0.9292   1.3622   1.7995   2.0041   2.0924   2.1506   2.6231   2.7233

          k =-0.5000-1.4434 0.0000 (  8844 PWs)   bands (ev):

   -57.3416 -57.3250 -57.3206 -57.3066 -33.8686 -33.8652 -33.8221 -33.8107
   -33.6701 -33.6593 -33.6197 -33.6032 -33.5746 -33.5629 -33.5238 -33.5063
   -18.0994 -18.0963 -18.0588 -18.0579  -9.5283  -9.5250  -5.2300  -5.2189
    -5.0670  -5.0353  -4.6754  -4.6608  -4.2561  -4.2389  -4.0929  -4.0919
    -3.7095  -3.6731  -2.5271  -2.4980  -2.4151  -2.3522  -2.1251  -2.1154
     1.3633   1.3652   2.0029   2.0154   2.1600   2.1780   2.5992   2.6004

     the Fermi energy is     0.3445 ev

!    total energy              =    -939.19596277 Ry
     total all-electron energy =     -7585.803358 Ry
     estimated scf accuracy    <          1.6E-10 Ry
     smearing contrib. (-TS)   =       0.00054385 Ry
     internal energy E=F+TS    =    -939.19650662 Ry

     The total energy is F=E-TS. E is the sum of the following terms:
     one-electron contribution =   -4507.69253315 Ry
     hartree contribution      =    2261.64094237 Ry
     xc contribution           =    -113.19737255 Ry
     ewald contribution        =    1732.09074084 Ry
     one-center paw contrib.   =    -312.03828413 Ry

     convergence has been achieved in  15 iterations

     negative rho (up, down):  4.352E-03 0.000E+00

     Forces acting on atoms (cartesian axes, Ry/au):

     atom    1 type  1   force =     0.00257411    0.00140027    0.00089603
     atom    2 type  1   force =    -0.00181431   -0.00085772   -0.00136549
     atom    3 type  2   force =    -0.00354577   -0.00212584    0.00123493
     atom    4 type  3   force =     0.00550653    0.00282444    0.00187033
     atom    5 type  3   force =     0.00308135    0.00203753   -0.00170277
     atom    6 type  1   force =     0.00131268    0.00072806    0.00004798
     atom    7 type  1   force =     0.00053458    0.00054400   -0.00353426
     atom    8 type  2   force =    -0.00025732   -0.00006907   -0.00312335
     atom    9 type  3   force =    -0.00100044   -0.00089590    0.00136529
     atom   10 type  3   force =    -0.00639141   -0.00358576    0.00431132

     Total force =     0.013905     Total SCF correction =     0.000045
     Energy error            =      4.6E-04 Ry
     Gradient error          =      6.4E-03 Ry/Bohr

     number of scf cycles    =  11
     number of bfgs steps    =  10

     energy             old  =    -939.1955047977 Ry
     energy             new  =    -939.1959627703 Ry

     CASE: energy            _new < energy            _old

     new trust radius        =       0.0200607853 bohr
     new conv_thr            =       0.0000000005 Ry


ATOMIC_POSITIONS (angstrom)
Ti               0.0393178362        1.7758123320        8.3056283084
Ti               1.5563942980        0.9030487610       10.9141465920
C                2.9943001182       -0.0246198563        9.6071660624
O               -0.0200594571        1.7372103533       11.8202609687
O                1.4793324615        0.8530712940        7.4025802651
Ti               3.0792457775        1.7806154677        8.3028583835
Ti               4.5836808396        0.8995689012       10.9181255690
C                6.0217485431       -0.0270562206        9.6098385352
O                3.0098779342        1.7362061185       11.8219889726
O                4.5250419701        0.8607937146        7.3944431779



     Writing config-only to output data dir ./tmp/slab.save/ :
     XML data file
     NEW-OLD atomic charge density approx. for the potential

     Check: negative core charge=   -0.000006

     negative rho (up, down):  4.376E-03 0.000E+00

     total cpu time spent up to now is      641.5 secs

     Self-consistent Calculation

     iteration #  1     ecut=    40.00 Ry     beta= 0.70
     Davidson diagonalization with overlap
     ethr =  1.00E-06,  avg # of iterations =  6.0

     negative rho (up, down):  4.370E-03 0.000E+00

     total cpu time spent up to now is      648.0 secs

     total energy              =    -939.19602524 Ry
     estimated scf accuracy    <       0.00024845 Ry

     iteration #  2     ecut=    40.00 Ry     beta= 0.70
     Davidson diagonalization with overlap
     c_bands:  1 eigenvalues not converged
     ethr =  3.11E-07,  avg # of iterations = 10.5

     negative rho (up, down):  4.389E-03 0.000E+00

     total cpu time spent up to now is      652.7 secs

     total energy              =    -939.19571140 Ry
     estimated scf accuracy    <       0.00394931 Ry

     iteration #  3     ecut=    40.00 Ry     beta= 0.70
     Davidson diagonalization with overlap
     ethr =  3.11E-07,  avg # of iterations =  9.3

     negative rho (up, down):  4.393E-03 0.000E+00

     total cpu time spent up to now is      656.7 secs

     total energy              =    -939.19610314 Ry
     estimated scf accuracy    <       0.00066228 Ry

     iteration #  4     ecut=    40.00 Ry     beta= 0.70
     Davidson diagonalization with overlap
     ethr =  3.11E-07,  avg # of iterations =  4.3

     negative rho (up, down):  4.375E-03 0.000E+00

     total cpu time spent up to now is      659.1 secs

     total energy              =    -939.19617753 Ry
     estimated scf accuracy    <       0.00003711 Ry

     iteration #  5     ecut=    40.00 Ry     beta= 0.70
     Davidson diagonalization with overlap
     ethr =  4.64E-08,  avg # of iterations =  6.7

     negative rho (up, down):  4.374E-03 0.000E+00

     total cpu time spent up to now is      661.7 secs

     total energy              =    -939.19618710 Ry
     estimated scf accuracy    <       0.00001124 Ry

     iteration #  6     ecut=    40.00 Ry     beta= 0.70
     Davidson diagonalization with overlap
     ethr =  1.40E-08,  avg # of iterations =  3.3

     negative rho (up, down):  4.369E-03 0.000E+00

     total cpu time spent up to now is      663.8 secs

     total energy              =    -939.19618862 Ry
     estimated scf accuracy    <       0.00000284 Ry

     iteration #  7     ecut=    40.00 Ry     beta= 0.70
     Davidson diagonalization with overlap
     ethr =  3.55E-09,  avg # of iterations =  6.2

     negative rho (up, down):  4.368E-03 0.000E+00

     total cpu time spent up to now is      666.5 secs

     total energy              =    -939.19618942 Ry
     estimated scf accuracy    <       0.00000139 Ry

     iteration #  8     ecut=    40.00 Ry     beta= 0.70
     Davidson diagonalization with overlap
     ethr =  1.74E-09,  avg # of iterations =  2.7

     negative rho (up, down):  4.367E-03 0.000E+00

     total cpu time spent up to now is      668.7 secs

     total energy              =    -939.19618957 Ry
     estimated scf accuracy    <       0.00000035 Ry

     iteration #  9     ecut=    40.00 Ry     beta= 0.70
     Davidson diagonalization with overlap
     ethr =  4.36E-10,  avg # of iterations =  5.5

     negative rho (up, down):  4.367E-03 0.000E+00

     total cpu time spent up to now is      671.5 secs

     total energy              =    -939.19618972 Ry
     estimated scf accuracy    <       0.00000018 Ry

     iteration # 10     ecut=    40.00 Ry     beta= 0.70
     Davidson diagonalization with overlap
     ethr =  2.24E-10,  avg # of iterations =  3.0

     negative rho (up, down):  4.367E-03 0.000E+00

     total cpu time spent up to now is      673.7 secs

     total energy              =    -939.19618971 Ry
     estimated scf accuracy    <       0.00000009 Ry

     iteration # 11     ecut=    40.00 Ry     beta= 0.70
     Davidson diagonalization with overlap
     ethr =  1.12E-10,  avg # of iterations =  2.7

     negative rho (up, down):  4.367E-03 0.000E+00

     total cpu time spent up to now is      675.8 secs

     total energy              =    -939.19618972 Ry
     estimated scf accuracy    <       0.00000001 Ry

     iteration # 12     ecut=    40.00 Ry     beta= 0.70
     Davidson diagonalization with overlap
     ethr =  1.25E-11,  avg # of iterations =  7.0

     negative rho (up, down):  4.367E-03 0.000E+00

     total cpu time spent up to now is      681.1 secs

     total energy              =    -939.19618973 Ry
     estimated scf accuracy    <       0.00000001 Ry

     iteration # 13     ecut=    40.00 Ry     beta= 0.70
     Davidson diagonalization with overlap
     ethr =  1.25E-11,  avg # of iterations =  1.5

     negative rho (up, down):  4.367E-03 0.000E+00

     total cpu time spent up to now is      683.1 secs

     total energy              =    -939.19618973 Ry
     estimated scf accuracy    <          4.2E-09 Ry

     iteration # 14     ecut=    40.00 Ry     beta= 0.70
     Davidson diagonalization with overlap
     ethr =  5.22E-12,  avg # of iterations =  4.0

     negative rho (up, down):  4.367E-03 0.000E+00

     total cpu time spent up to now is      685.4 secs

     End of self-consistent calculation

          k = 0.0000 0.0000 0.0000 (  8909 PWs)   bands (ev):

   -57.3989 -57.3623 -57.3350 -57.3076 -33.9701 -33.8715 -33.7600 -33.5938
   -33.5693 -33.5561 -33.5161 -33.5117 -33.4697 -33.4485 -33.4242 -33.3993
   -18.5988 -18.5161 -18.1011 -18.0886 -10.7023  -9.4373  -6.0597  -5.5584
    -5.2009  -4.7367  -4.7329  -4.3801  -4.3688  -4.2882  -4.1512  -4.1452
    -3.9451  -3.7760  -3.2031  -1.5497  -1.1941  -0.8351   0.0864   0.1021
     0.7126   1.2396   1.2564   1.7497   1.7794   1.9020   1.9703   2.5133

          k = 0.0000 0.5773 0.0000 (  8890 PWs)   bands (ev):

   -57.3680 -57.3363 -57.3345 -57.3062 -33.8693 -33.8125 -33.7214 -33.6903
   -33.6690 -33.6430 -33.6103 -33.5863 -33.5217 -33.5109 -33.5047 -33.4515
   -18.3182 -18.2758 -18.0876 -18.0719 -10.3175  -9.5342  -5.3901  -5.1812
    -5.1041  -4.9039  -4.6580  -4.6222  -4.3639  -4.2767  -4.1424  -4.0500
    -3.7619  -3.6535  -2.4966  -2.4664  -2.4133  -2.0949  -1.1024  -1.0506
     0.9346   1.3639   1.8026   2.0066   2.1007   2.1570   2.6235   2.7271

          k = 0.0000-1.1547 0.0000 (  8960 PWs)   bands (ev):

   -57.3391 -57.3330 -57.3133 -57.3007 -33.9486 -33.9476 -33.9042 -33.9023
   -33.5974 -33.5971 -33.5635 -33.5613 -33.5213 -33.5168 -33.4983 -33.4941
   -18.1237 -18.0933 -18.0806 -18.0551  -9.4382  -9.4330  -6.0595  -6.0548
    -5.2078  -5.1953  -4.2386  -4.2236  -4.1617  -4.1589  -3.9737  -3.9535
    -3.7394  -3.7320  -3.1786  -3.1624  -1.5455  -1.5438  -1.2167  -1.2062
     0.7174   0.7279   1.9111   1.9176   2.4748   2.4812   2.5661   2.5811

          k =-0.5000-0.2887 0.0000 (  8936 PWs)   bands (ev):

   -57.3709 -57.3637 -57.3409 -57.3286 -33.7424 -33.7338 -33.6958 -33.6900
   -33.6460 -33.6380 -33.5164 -33.5089 -33.5076 -33.4976 -33.4722 -33.4627
   -18.3259 -18.3076 -18.2915 -18.2733 -10.3247 -10.3097  -5.4080  -5.3930
    -4.9051  -4.8937  -4.6177  -4.6066  -4.4096  -4.4044  -4.1523  -4.1151
    -3.6694  -3.6462  -2.4777  -2.4606  -1.1055  -1.1029  -1.0960  -1.0868
     0.9810   1.0144   1.7818   1.8044   2.1395   2.1679   2.7261   2.7393

          k =-0.5000 0.2887 0.0000 (  8890 PWs)   bands (ev):

   -57.3680 -57.3363 -57.3346 -57.3062 -33.8663 -33.8150 -33.7217 -33.6894
   -33.6708 -33.6431 -33.6093 -33.5875 -33.5219 -33.5100 -33.5033 -33.4524
   -18.3170 -18.2760 -18.0885 -18.0717 -10.3175  -9.5348  -5.3885  -5.1780
    -5.1096  -4.9039  -4.6534  -4.6237  -4.3550  -4.2838  -4.1464  -4.0447
    -3.7710  -3.6530  -2.4932  -2.4656  -2.4188  -2.0901  -1.1035  -1.0448
     0.9253   1.3661   1.8034   2.0057   2.0957   2.1544   2.6267   2.7248

          k =-0.5000-1.4434 0.0000 (  8844 PWs)   bands (ev):

   -57.3391 -57.3330 -57.3132 -57.3006 -33.8662 -33.8562 -33.8270 -33.8153
   -33.6694 -33.6658 -33.6111 -33.6070 -33.5652 -33.5619 -33.5149 -33.5095
   -18.1114 -18.0801 -18.0730 -18.0468  -9.5332  -9.5287  -5.2295  -5.2105
    -5.0665  -5.0371  -4.6804  -4.6758  -4.2473  -4.2376  -4.0980  -4.0814
    -3.7043  -3.6754  -2.5238  -2.4969  -2.4028  -2.3592  -2.1307  -2.1289
     1.3543   1.3639   2.0102   2.0152   2.1624   2.1660   2.5957   2.6013

     the Fermi energy is     0.3385 ev

!    total energy              =    -939.19618973 Ry
     total all-electron energy =     -7585.803585 Ry
     estimated scf accuracy    <          2.0E-10 Ry
     smearing contrib. (-TS)   =       0.00057434 Ry
     internal energy E=F+TS    =    -939.19676407 Ry

     The total energy is F=E-TS. E is the sum of the following terms:
     one-electron contribution =   -4511.25372569 Ry
     hartree contribution      =    2263.42470786 Ry
     xc contribution           =    -113.20304188 Ry
     ewald contribution        =    1733.87373532 Ry
     one-center paw contrib.   =    -312.03843968 Ry

     convergence has been achieved in  14 iterations

     negative rho (up, down):  4.367E-03 0.000E+00

     Forces acting on atoms (cartesian axes, Ry/au):

     atom    1 type  1   force =     0.00392023    0.00227196   -0.00076504
     atom    2 type  1   force =    -0.00223158   -0.00114242   -0.00046945
     atom    3 type  2   force =    -0.00093701   -0.00059314    0.00198513
     atom    4 type  3   force =     0.00045642    0.00004151   -0.00055919
     atom    5 type  3   force =     0.00119768    0.00079425   -0.00180587
     atom    6 type  1   force =    -0.00122012   -0.00074928    0.00037442
     atom    7 type  1   force =     0.00294270    0.00190175   -0.00178953
     atom    8 type  2   force =    -0.00131788   -0.00077833    0.00154651
     atom    9 type  3   force =     0.00100155    0.00032806    0.00124138
     atom   10 type  3   force =    -0.00381198   -0.00207436    0.00024164

     Total force =     0.009088     Total SCF correction =     0.000051
     Energy error            =      2.3E-04 Ry
     Gradient error          =      3.9E-03 Ry/Bohr

     number of scf cycles    =  12
     number of bfgs steps    =  11

     energy             old  =    -939.1959627703 Ry
     energy             new  =    -939.1961897304 Ry

     CASE: energy            _new < energy            _old

     new trust radius        =       0.0094534617 bohr
     new conv_thr            =       0.0000000002 Ry


ATOMIC_POSITIONS (angstrom)
Ti               0.0431788517        1.7781214612        8.3052971780
Ti               1.5566434520        0.9034369222       10.9140953382
C                2.9916921566       -0.0262635133        9.6077860881
O               -0.0183454732        1.7379147544       11.8202588602
O                1.4793910122        0.8531871829        7.4018093636
Ti               3.0808578764        1.7816033017        8.3030836518
Ti               4.5858672823        0.9011087827       10.9168332608
C                6.0197094838       -0.0283162429        9.6093272190
O                3.0090584814        1.7354426176       11.8228354812
O                4.5208271984        0.8584155989        7.3957103938



     Writing config-only to output data dir ./tmp/slab.save/ :
     XML data file
     NEW-OLD atomic charge density approx. for the potential

     Check: negative core charge=   -0.000006

     negative rho (up, down):  4.365E-03 0.000E+00

     total cpu time spent up to now is      686.9 secs

     Self-consistent Calculation

     iteration #  1     ecut=    40.00 Ry     beta= 0.70
     Davidson diagonalization with overlap
     ethr =  1.00E-06,  avg # of iterations =  3.8

     Threshold (ethr) on eigenvalues was too large:
     Diagonalizing with lowered threshold

     Davidson diagonalization with overlap
     ethr =  6.17E-08,  avg # of iterations =  6.5

     negative rho (up, down):  4.365E-03 0.000E+00

     total cpu time spent up to now is      692.4 secs

     total energy              =    -939.19624466 Ry
     estimated scf accuracy    <       0.00004988 Ry

     iteration #  2     ecut=    40.00 Ry     beta= 0.70
     Davidson diagonalization with overlap
     ethr =  6.23E-08,  avg # of iterations =  5.7

     negative rho (up, down):  4.372E-03 0.000E+00

     total cpu time spent up to now is      695.2 secs

     total energy              =    -939.19624645 Ry
     estimated scf accuracy    <       0.00008530 Ry

     iteration #  3     ecut=    40.00 Ry     beta= 0.70
     Davidson diagonalization with overlap
     ethr =  6.23E-08,  avg # of iterations =  6.5

     negative rho (up, down):  4.374E-03 0.000E+00

     total cpu time spent up to now is      697.8 secs

     total energy              =    -939.19626076 Ry
     estimated scf accuracy    <       0.00004016 Ry

     iteration #  4     ecut=    40.00 Ry     beta= 0.70
     Davidson diagonalization with overlap
     ethr =  5.02E-08,  avg # of iterations =  4.5

     negative rho (up, down):  4.375E-03 0.000E+00

     total cpu time spent up to now is      699.9 secs

     total energy              =    -939.19626337 Ry
     estimated scf accuracy    <       0.00006727 Ry

     iteration #  5     ecut=    40.00 Ry     beta= 0.70
     Davidson diagonalization with overlap
     ethr =  5.02E-08,  avg # of iterations =  2.0

     negative rho (up, down):  4.369E-03 0.000E+00

     total cpu time spent up to now is      702.0 secs

     total energy              =    -939.19626995 Ry
     estimated scf accuracy    <       0.00000118 Ry

     iteration #  6     ecut=    40.00 Ry     beta= 0.70
     Davidson diagonalization with overlap
     ethr =  1.48E-09,  avg # of iterations =  8.0

     negative rho (up, down):  4.365E-03 0.000E+00

     total cpu time spent up to now is      705.0 secs

     total energy              =    -939.19627144 Ry
     estimated scf accuracy    <       0.00000138 Ry

     iteration #  7     ecut=    40.00 Ry     beta= 0.70
     Davidson diagonalization with overlap
     ethr =  1.48E-09,  avg # of iterations =  2.2

     negative rho (up, down):  4.364E-03 0.000E+00

     total cpu time spent up to now is      707.1 secs

     total energy              =    -939.19627153 Ry
     estimated scf accuracy    <       0.00000059 Ry

     iteration #  8     ecut=    40.00 Ry     beta= 0.70
     Davidson diagonalization with overlap
     ethr =  7.36E-10,  avg # of iterations =  2.2

     negative rho (up, down):  4.364E-03 0.000E+00

     total cpu time spent up to now is      709.2 secs

     total energy              =    -939.19627158 Ry
     estimated scf accuracy    <       0.00000010 Ry

     iteration #  9     ecut=    40.00 Ry     beta= 0.70
     Davidson diagonalization with overlap
     ethr =  1.27E-10,  avg # of iterations =  6.3

     negative rho (up, down):  4.364E-03 0.000E+00

     total cpu time spent up to now is      714.0 secs

     total energy              =    -939.19627163 Ry
     estimated scf accuracy    <       0.00000010 Ry

     iteration # 10     ecut=    40.00 Ry     beta= 0.70
     Davidson diagonalization with overlap
     ethr =  1.25E-10,  avg # of iterations =  1.3

     negative rho (up, down):  4.364E-03 0.000E+00

     total cpu time spent up to now is      715.9 secs

     total energy              =    -939.19627162 Ry
     estimated scf accuracy    <       0.00000006 Ry

     iteration # 11     ecut=    40.00 Ry     beta= 0.70
     Davidson diagonalization with overlap
     ethr =  6.97E-11,  avg # of iterations =  2.2

     negative rho (up, down):  4.364E-03 0.000E+00

     total cpu time spent up to now is      718.0 secs

     total energy              =    -939.19627162 Ry
     estimated scf accuracy    <       0.00000001 Ry

     iteration # 12     ecut=    40.00 Ry     beta= 0.70
     Davidson diagonalization with overlap
     ethr =  1.35E-11,  avg # of iterations =  5.7

     negative rho (up, down):  4.364E-03 0.000E+00

     total cpu time spent up to now is      720.4 secs

     total energy              =    -939.19627163 Ry
     estimated scf accuracy    <          2.2E-09 Ry

     iteration # 13     ecut=    40.00 Ry     beta= 0.70
     Davidson diagonalization with overlap
     ethr =  2.79E-12,  avg # of iterations =  3.8

     negative rho (up, down):  4.364E-03 0.000E+00

     total cpu time spent up to now is      722.7 secs

     total energy              =    -939.19627163 Ry
     estimated scf accuracy    <          5.0E-10 Ry

     iteration # 14     ecut=    40.00 Ry     beta= 0.70
     Davidson diagonalization with overlap
     ethr =  6.26E-13,  avg # of iterations =  5.8

     negative rho (up, down):  4.364E-03 0.000E+00

     total cpu time spent up to now is      725.4 secs

     total energy              =    -939.19627163 Ry
     estimated scf accuracy    <          3.7E-10 Ry

     iteration # 15     ecut=    40.00 Ry     beta= 0.70
     Davidson diagonalization with overlap
     ethr =  4.57E-13,  avg # of iterations =  1.3

     negative rho (up, down):  4.364E-03 0.000E+00

     total cpu time spent up to now is      727.3 secs

     End of self-consistent calculation

          k = 0.0000 0.0000 0.0000 (  8909 PWs)   bands (ev):

   -57.3988 -57.3600 -57.3349 -57.3060 -33.9702 -33.8690 -33.7598 -33.5939
   -33.5685 -33.5556 -33.5148 -33.5112 -33.4702 -33.4484 -33.4239 -33.3970
   -18.5982 -18.5170 -18.1061 -18.0865 -10.7057  -9.4414  -6.0617  -5.5599
    -5.2031  -4.7359  -4.7345  -4.3786  -4.3687  -4.3024  -4.1505  -4.1454
    -3.9430  -3.7822  -3.2078  -1.5518  -1.1966  -0.8409   0.0646   0.0795
     0.7197   1.2550   1.2756   1.7493   1.7767   1.9041   1.9757   2.5126

          k = 0.0000 0.5773 0.0000 (  8890 PWs)   bands (ev):

   -57.3682 -57.3354 -57.3323 -57.3050 -33.8695 -33.8111 -33.7213 -33.6901
   -33.6686 -33.6428 -33.6099 -33.5859 -33.5207 -33.5098 -33.5048 -33.4495
   -18.3153 -18.2778 -18.0855 -18.0762 -10.3207  -9.5379  -5.3893  -5.1858
    -5.1022  -4.9041  -4.6597  -4.6245  -4.3606  -4.2799  -4.1432  -4.0553
    -3.7608  -3.6567  -2.5000  -2.4706  -2.4158  -2.0931  -1.1116  -1.0530
     0.9312   1.3658   1.8029   2.0057   2.0982   2.1591   2.6263   2.7281

          k = 0.0000-1.1547 0.0000 (  8960 PWs)   bands (ev):

   -57.3407 -57.3315 -57.3084 -57.3014 -33.9482 -33.9478 -33.9046 -33.9022
   -33.5986 -33.5952 -33.5631 -33.5614 -33.5189 -33.5183 -33.4955 -33.4929
   -18.1133 -18.0975 -18.0788 -18.0626  -9.4427  -9.4355  -6.0586  -6.0579
    -5.2046  -5.1995  -4.2364  -4.2207  -4.1633  -4.1605  -3.9696  -3.9580
    -3.7370  -3.7313  -3.1751  -3.1660  -1.5503  -1.5482  -1.2221  -1.2148
     0.7195   0.7264   1.9079   1.9154   2.4707   2.4767   2.5685   2.5801

          k =-0.5000-0.2887 0.0000 (  8936 PWs)   bands (ev):

   -57.3718 -57.3627 -57.3365 -57.3291 -33.7415 -33.7352 -33.6954 -33.6896
   -33.6428 -33.6376 -33.5143 -33.5072 -33.5066 -33.4992 -33.4716 -33.4626
   -18.3205 -18.3099 -18.2914 -18.2799 -10.3267 -10.3134  -5.4066  -5.3969
    -4.9045  -4.8977  -4.6173  -4.6068  -4.4180  -4.4153  -4.1379  -4.1238
    -3.6709  -3.6543  -2.4783  -2.4668  -1.1112  -1.1082  -1.0991  -1.0908
     0.9952   1.0172   1.7839   1.7984   2.1481   2.1666   2.7306   2.7380

          k =-0.5000 0.2887 0.0000 (  8890 PWs)   bands (ev):

   -57.3681 -57.3355 -57.3323 -57.3050 -33.8662 -33.8136 -33.7217 -33.6892
   -33.6705 -33.6429 -33.6089 -33.5872 -33.5209 -33.5089 -33.5034 -33.4505
   -18.3141 -18.2779 -18.0865 -18.0760 -10.3206  -9.5386  -5.3875  -5.1823
    -5.1086  -4.9041  -4.6542  -4.6262  -4.3506  -4.2878  -4.1468  -4.0498
    -3.7713  -3.6561  -2.4961  -2.4699  -2.4219  -2.0872  -1.1131  -1.0472
     0.9204   1.3687   1.8038   2.0049   2.0926   2.1563   2.6300   2.7257

          k =-0.5000-1.4434 0.0000 (  8844 PWs)   bands (ev):

   -57.3406 -57.3315 -57.3083 -57.3013 -33.8648 -33.8596 -33.8258 -33.8158
   -33.6704 -33.6655 -33.6085 -33.6082 -33.5615 -33.5609 -33.5122 -33.5108
   -18.1008 -18.0848 -18.0710 -18.0545  -9.5372  -9.5306  -5.2259  -5.2122
    -5.0613  -5.0416  -4.6888  -4.6824  -4.2408  -4.2338  -4.0970  -4.0853
    -3.6944  -3.6757  -2.5246  -2.5023  -2.3982  -2.3665  -2.1387  -2.1341
     1.3507   1.3609   2.0094   2.0131   2.1657   2.1660   2.5949   2.5991

     the Fermi energy is     0.3182 ev

!    total energy              =    -939.19627163 Ry
     total all-electron energy =     -7585.803667 Ry
     estimated scf accuracy    <          4.8E-11 Ry
     smearing contrib. (-TS)   =       0.00064413 Ry
     internal energy E=F+TS    =    -939.19691575 Ry

     The total energy is F=E-TS. E is the sum of the following terms:
     one-electron contribution =   -4511.50735675 Ry
     hartree contribution      =    2263.55035714 Ry
     xc contribution           =    -113.20515098 Ry
     ewald contribution        =    1734.00369036 Ry
     one-center paw contrib.   =    -312.03845553 Ry

     convergence has been achieved in  15 iterations

     negative rho (up, down):  4.364E-03 0.000E+00

     Forces acting on atoms (cartesian axes, Ry/au):

     atom    1 type  1   force =     0.00246462    0.00141035   -0.00053720
     atom    2 type  1   force =    -0.00123303   -0.00064498    0.00031544
     atom    3 type  2   force =    -0.00014435   -0.00008504    0.00132802
     atom    4 type  3   force =    -0.00068916   -0.00054065   -0.00067091
     atom    5 type  3   force =     0.00075673    0.00052094   -0.00191925
     atom    6 type  1   force =    -0.00155578   -0.00096314    0.00038415
     atom    7 type  1   force =     0.00154800    0.00104773   -0.00042743
     atom    8 type  2   force =    -0.00025846   -0.00015693    0.00187295
     atom    9 type  3   force =     0.00152937    0.00067896    0.00016716
     atom   10 type  3   force =    -0.00241794   -0.00126724   -0.00051294

     Total force =     0.006264     Total SCF correction =     0.000019
     Energy error            =      8.2E-05 Ry
     Gradient error          =      2.5E-03 Ry/Bohr

     number of scf cycles    =  13
     number of bfgs steps    =  12

     energy             old  =    -939.1961897304 Ry
     energy             new  =    -939.1962716257 Ry

     CASE: energy            _new < energy            _old

     new trust radius        =       0.0101353064 bohr
     new conv_thr            =            1.0E-10 Ry


ATOMIC_POSITIONS (angstrom)
Ti               0.0466502661        1.7800991056        8.3047356983
Ti               1.5551414015        0.9026969233       10.9145373825
C                2.9902153287       -0.0271409563        9.6092013962
O               -0.0171650550        1.7383437471       11.8201585076
O                1.4813299198        0.8544602908        7.3991960801
Ti               3.0795782762        1.7807873783        8.3033749747
Ti               4.5874182742        0.9022466089       10.9158509877
C                6.0194178154       -0.0284685910        9.6100136161
O                3.0101219078        1.7357314879       11.8233960746
O                4.5161721866        0.8558948706        7.3965721170



     Writing config-only to output data dir ./tmp/slab.save/ :
     XML data file
     NEW-OLD atomic charge density approx. for the potential

     Check: negative core charge=   -0.000006

     negative rho (up, down):  4.362E-03 0.000E+00

     total cpu time spent up to now is      728.8 secs

     Self-consistent Calculation

     iteration #  1     ecut=    40.00 Ry     beta= 0.70
     Davidson diagonalization with overlap
     ethr =  1.00E-06,  avg # of iterations =  4.3

     Threshold (ethr) on eigenvalues was too large:
     Diagonalizing with lowered threshold

     Davidson diagonalization with overlap
     ethr =  6.25E-08,  avg # of iterations =  5.0

     negative rho (up, down):  4.361E-03 0.000E+00

     total cpu time spent up to now is      734.3 secs

     total energy              =    -939.19629394 Ry
     estimated scf accuracy    <       0.00005110 Ry

     iteration #  2     ecut=    40.00 Ry     beta= 0.70
     Davidson diagonalization with overlap
     ethr =  6.39E-08,  avg # of iterations =  7.2

     negative rho (up, down):  4.371E-03 0.000E+00

     total cpu time spent up to now is      737.1 secs

     total energy              =    -939.19625924 Ry
     estimated scf accuracy    <       0.00037390 Ry

     iteration #  3     ecut=    40.00 Ry     beta= 0.70
     Davidson diagonalization with overlap
     ethr =  6.39E-08,  avg # of iterations =  6.5

     negative rho (up, down):  4.372E-03 0.000E+00

     total cpu time spent up to now is      739.7 secs

     total energy              =    -939.19629726 Ry
     estimated scf accuracy    <       0.00019312 Ry

     iteration #  4     ecut=    40.00 Ry     beta= 0.70
     Davidson diagonalization with overlap
     ethr =  6.39E-08,  avg # of iterations =  6.3

     negative rho (up, down):  4.368E-03 0.000E+00

     total cpu time spent up to now is      742.1 secs

     total energy              =    -939.19631731 Ry
     estimated scf accuracy    <       0.00003322 Ry

     iteration #  5     ecut=    40.00 Ry     beta= 0.70
     Davidson diagonalization with overlap
     ethr =  4.15E-08,  avg # of iterations =  2.0

     negative rho (up, down):  4.364E-03 0.000E+00

     total cpu time spent up to now is      744.1 secs

     total energy              =    -939.19632106 Ry
     estimated scf accuracy    <       0.00000184 Ry

     iteration #  6     ecut=    40.00 Ry     beta= 0.70
     Davidson diagonalization with overlap
     ethr =  2.30E-09,  avg # of iterations =  6.8

     negative rho (up, down):  4.362E-03 0.000E+00

     total cpu time spent up to now is      749.0 secs

     total energy              =    -939.19632264 Ry
     estimated scf accuracy    <       0.00000123 Ry

     iteration #  7     ecut=    40.00 Ry     beta= 0.70
     Davidson diagonalization with overlap
     ethr =  1.54E-09,  avg # of iterations =  2.0

     negative rho (up, down):  4.362E-03 0.000E+00

     total cpu time spent up to now is      751.0 secs

     total energy              =    -939.19632264 Ry
     estimated scf accuracy    <       0.00000063 Ry

     iteration #  8     ecut=    40.00 Ry     beta= 0.70
     Davidson diagonalization with overlap
     ethr =  7.82E-10,  avg # of iterations =  2.8

     negative rho (up, down):  4.362E-03 0.000E+00

     total cpu time spent up to now is      753.1 secs

     total energy              =    -939.19632271 Ry
     estimated scf accuracy    <       0.00000006 Ry

     iteration #  9     ecut=    40.00 Ry     beta= 0.70
     Davidson diagonalization with overlap
     ethr =  7.03E-11,  avg # of iterations =  8.0

     negative rho (up, down):  4.362E-03 0.000E+00

     total cpu time spent up to now is      756.1 secs

     total energy              =    -939.19632275 Ry
     estimated scf accuracy    <       0.00000003 Ry

     iteration # 10     ecut=    40.00 Ry     beta= 0.70
     Davidson diagonalization with overlap
     ethr =  3.51E-11,  avg # of iterations =  3.7

     negative rho (up, down):  4.362E-03 0.000E+00

     total cpu time spent up to now is      758.3 secs

     total energy              =    -939.19632275 Ry
     estimated scf accuracy    <       0.00000002 Ry

     iteration # 11     ecut=    40.00 Ry     beta= 0.70
     Davidson diagonalization with overlap
     ethr =  2.04E-11,  avg # of iterations =  2.0

     negative rho (up, down):  4.362E-03 0.000E+00

     total cpu time spent up to now is      760.3 secs

     total energy              =    -939.19632275 Ry
     estimated scf accuracy    <          4.9E-09 Ry

     iteration # 12     ecut=    40.00 Ry     beta= 0.70
     Davidson diagonalization with overlap
     ethr =  6.12E-12,  avg # of iterations =  6.7

     negative rho (up, down):  4.362E-03 0.000E+00

     total cpu time spent up to now is      762.7 secs

     total energy              =    -939.19632275 Ry
     estimated scf accuracy    <          4.2E-10 Ry

     iteration # 13     ecut=    40.00 Ry     beta= 0.70
     Davidson diagonalization with overlap
     ethr =  5.28E-13,  avg # of iterations =  6.3

     negative rho (up, down):  4.362E-03 0.000E+00

     total cpu time spent up to now is      765.7 secs

     total energy              =    -939.19632275 Ry
     estimated scf accuracy    <          7.8E-10 Ry

     iteration # 14     ecut=    40.00 Ry     beta= 0.70
     Davidson diagonalization with overlap
     ethr =  5.28E-13,  avg # of iterations =  2.5

     negative rho (up, down):  4.362E-03 0.000E+00

     total cpu time spent up to now is      767.7 secs

     End of self-consistent calculation

          k = 0.0000 0.0000 0.0000 (  8909 PWs)   bands (ev):

   -57.4001 -57.3627 -57.3365 -57.3094 -33.9709 -33.8711 -33.7619 -33.5964
   -33.5706 -33.5583 -33.5173 -33.5130 -33.4714 -33.4519 -33.4257 -33.4000
   -18.5982 -18.5175 -18.1092 -18.0856 -10.7096  -9.4453  -6.0631  -5.5615
    -5.2051  -4.7368  -4.7323  -4.3790  -4.3668  -4.3092  -4.1538  -4.1443
    -3.9444  -3.7871  -3.2125  -1.5530  -1.1983  -0.8451   0.0551   0.0693
     0.7230   1.2560   1.2799   1.7478   1.7723   1.9024   1.9742   2.5109

          k = 0.0000 0.5773 0.0000 (  8890 PWs)   bands (ev):

   -57.3692 -57.3371 -57.3349 -57.3087 -33.8704 -33.8139 -33.7235 -33.6924
   -33.6704 -33.6453 -33.6125 -33.5880 -33.5223 -33.5110 -33.5085 -33.4524
   -18.3141 -18.2791 -18.0843 -18.0790 -10.3242  -9.5416  -5.3889  -5.1884
    -5.1017  -4.9039  -4.6609  -4.6258  -4.3585  -4.2816  -4.1424  -4.0578
    -3.7610  -3.6581  -2.5035  -2.4759  -2.4185  -2.0940  -1.1181  -1.0563
     0.9257   1.3650   1.8009   2.0040   2.0939   2.1567   2.6254   2.7249

          k = 0.0000-1.1547 0.0000 (  8960 PWs)   bands (ev):

   -57.3401 -57.3347 -57.3084 -57.3078 -33.9509 -33.9500 -33.9067 -33.9047
   -33.6002 -33.5968 -33.5648 -33.5629 -33.5225 -33.5207 -33.4974 -33.4964
   -18.1079 -18.0997 -18.0743 -18.0714  -9.4446  -9.4407  -6.0601  -6.0584
    -5.2027  -5.2011  -4.2319  -4.2190  -4.1644  -4.1617  -3.9649  -3.9634
    -3.7362  -3.7302  -3.1745  -3.1706  -1.5544  -1.5535  -1.2258  -1.2214
     0.7155   0.7187   1.9029   1.9110   2.4678   2.4721   2.5708   2.5742

          k =-0.5000-0.2887 0.0000 (  8936 PWs)   bands (ev):

   -57.3711 -57.3662 -57.3364 -57.3353 -33.7406 -33.7378 -33.6962 -33.6933
   -33.6430 -33.6427 -33.5144 -33.5117 -33.5064 -33.5054 -33.4705 -33.4674
   -18.3187 -18.3125 -18.2904 -18.2831 -10.3272 -10.3193  -5.4037  -5.4012
    -4.9036  -4.9008  -4.6169  -4.6085  -4.4252  -4.4167  -4.1398  -4.1232
    -3.6673  -3.6638  -2.4800  -2.4739  -1.1122  -1.1091  -1.1021  -1.0956
     1.0041   1.0145   1.7867   1.7878   2.1527   2.1590   2.7290   2.7342

          k =-0.5000 0.2887 0.0000 (  8890 PWs)   bands (ev):

   -57.3691 -57.3371 -57.3350 -57.3087 -33.8669 -33.8164 -33.7238 -33.6916
   -33.6726 -33.6454 -33.6117 -33.5894 -33.5226 -33.5105 -33.5063 -33.4533
   -18.3129 -18.2792 -18.0854 -18.0788 -10.3243  -9.5424  -5.3869  -5.1850
    -5.1088  -4.9037  -4.6544  -4.6278  -4.3477  -4.2901  -4.1453  -4.0527
    -3.7725  -3.6572  -2.4995  -2.4751  -2.4252  -2.0868  -1.1202  -1.0513
     0.9134   1.3690   1.8021   2.0035   2.0880   2.1541   2.6296   2.7226

          k =-0.5000-1.4434 0.0000 (  8844 PWs)   bands (ev):

   -57.3400 -57.3346 -57.3083 -57.3077 -33.8666 -33.8654 -33.8232 -33.8214
   -33.6703 -33.6675 -33.6116 -33.6093 -33.5637 -33.5633 -33.5150 -33.5137
   -18.0953 -18.0873 -18.0665 -18.0634  -9.5390  -9.5352  -5.2177  -5.2173
    -5.0528  -5.0506  -4.6908  -4.6886  -4.2348  -4.2330  -4.0907  -4.0904
    -3.6841  -3.6825  -2.5194  -2.5093  -2.3914  -2.3819  -2.1455  -2.1422
     1.3479   1.3517   2.0055   2.0090   2.1626   2.1659   2.5934   2.5935

     the Fermi energy is     0.3088 ev

!    total energy              =    -939.19632275 Ry
     total all-electron energy =     -7585.803718 Ry
     estimated scf accuracy    <          4.0E-11 Ry
     smearing contrib. (-TS)   =       0.00066033 Ry
     internal energy E=F+TS    =    -939.19698308 Ry

     The total energy is F=E-TS. E is the sum of the following terms:
     one-electron contribution =   -4511.08830120 Ry
     hartree contribution      =    2263.33468109 Ry
     xc contribution           =    -113.20427414 Ry
     ewald contribution        =    1733.79935724 Ry
     one-center paw contrib.   =    -312.03844607 Ry

     convergence has been achieved in  14 iterations

     negative rho (up, down):  4.362E-03 0.000E+00

     Forces acting on atoms (cartesian axes, Ry/au):

     atom    1 type  1   force =     0.00038365    0.00025062   -0.00009730
     atom    2 type  1   force =     0.00075128    0.00044044    0.00097179
     atom    3 type  2   force =    -0.00013781   -0.00006645    0.00010953
     atom    4 type  3   force =    -0.00127702   -0.00078546   -0.00017161
     atom    5 type  3   force =    -0.00012816   -0.00006520   -0.00115030
     atom    6 type  1   force =    -0.00021954   -0.00013278    0.00014372
     atom    7 type  1   force =     0.00002093    0.00012024    0.00075332
     atom    8 type  2   force =     0.00049940    0.00024704    0.00087172
     atom    9 type  3   force =     0.00093544    0.00041697   -0.00091457
     atom   10 type  3   force =    -0.00082818   -0.00042542   -0.00051629

     Total force =     0.003215     Total SCF correction =     0.000017
     Energy error            =      5.1E-05 Ry
     Gradient error          =      1.3E-03 Ry/Bohr

     number of scf cycles    =  14
     number of bfgs steps    =  13

     energy             old  =    -939.1962716257 Ry
     energy             new  =    -939.1963227510 Ry

     CASE: energy            _new < energy            _old

     new trust radius        =       0.0031433412 bohr
     new conv_thr            =            1.0E-10 Ry


ATOMIC_POSITIONS (angstrom)
Ti               0.0478137572        1.7808055831        8.3045992396
Ti               1.5555671317        0.9029994837       10.9151126035
C                2.9896848274       -0.0274663137        9.6095378882
O               -0.0178388879        1.7378601935       11.8199581119
O                1.4812266500        0.8544263437        7.3981582724
Ti               3.0796433013        1.7808286306        8.3035653529
Ti               4.5880595775        0.9027512500       10.9159999881
C                6.0192863689       -0.0285909521        9.6107663604
O                3.0107133560        1.7359241569       11.8230080984
O                4.5147242393        0.8551124896        7.3963309192



     Writing config-only to output data dir ./tmp/slab.save/ :
     XML data file
     NEW-OLD atomic charge density approx. for the potential

     Check: negative core charge=   -0.000006

     negative rho (up, down):  4.358E-03 0.000E+00

     total cpu time spent up to now is      769.2 secs

     Self-consistent Calculation

     iteration #  1     ecut=    40.00 Ry     beta= 0.70
     Davidson diagonalization with overlap
     ethr =  1.00E-06,  avg # of iterations =  2.2

     Threshold (ethr) on eigenvalues was too large:
     Diagonalizing with lowered threshold

     Davidson diagonalization with overlap
     ethr =  8.01E-09,  avg # of iterations =  5.8

     negative rho (up, down):  4.359E-03 0.000E+00

     total cpu time spent up to now is      774.6 secs

     total energy              =    -939.19632947 Ry
     estimated scf accuracy    <       0.00000649 Ry

     iteration #  2     ecut=    40.00 Ry     beta= 0.70
     Davidson diagonalization with overlap
     ethr =  8.11E-09,  avg # of iterations =  5.8
     Minimization algorithm failed to find Fermi energy: reverting to bisection
     Possible cause: smearing is larger than the electronic band-gap.

     negative rho (up, down):  4.360E-03 0.000E+00

     total cpu time spent up to now is      777.5 secs

     total energy              =    -939.19632780 Ry
     estimated scf accuracy    <       0.00002433 Ry

     iteration #  3     ecut=    40.00 Ry     beta= 0.70
     Davidson diagonalization with overlap
     ethr =  8.11E-09,  avg # of iterations =  6.2
     Minimization algorithm failed to find Fermi energy: reverting to bisection
     Possible cause: smearing is larger than the electronic band-gap.

     negative rho (up, down):  4.361E-03 0.000E+00

     total cpu time spent up to now is      782.1 secs

     total energy              =    -939.19633010 Ry
     estimated scf accuracy    <       0.00002058 Ry

     iteration #  4     ecut=    40.00 Ry     beta= 0.70
     Davidson diagonalization with overlap
     ethr =  8.11E-09,  avg # of iterations =  5.8

     negative rho (up, down):  4.360E-03 0.000E+00

     total cpu time spent up to now is      784.4 secs

     total energy              =    -939.19633225 Ry
     estimated scf accuracy    <       0.00000528 Ry

     iteration #  5     ecut=    40.00 Ry     beta= 0.70
     Davidson diagonalization with overlap
     ethr =  6.60E-09,  avg # of iterations =  2.0

     negative rho (up, down):  4.360E-03 0.000E+00

     total cpu time spent up to now is      786.5 secs

     total energy              =    -939.19633285 Ry
     estimated scf accuracy    <       0.00000019 Ry

     iteration #  6     ecut=    40.00 Ry     beta= 0.70
     Davidson diagonalization with overlap
     ethr =  2.36E-10,  avg # of iterations =  8.5

     negative rho (up, down):  4.359E-03 0.000E+00

     total cpu time spent up to now is      789.5 secs

     total energy              =    -939.19633307 Ry
     estimated scf accuracy    <       0.00000014 Ry

     iteration #  7     ecut=    40.00 Ry     beta= 0.70
     Davidson diagonalization with overlap
     ethr =  1.80E-10,  avg # of iterations =  2.0

     negative rho (up, down):  4.359E-03 0.000E+00

     total cpu time spent up to now is      791.5 secs

     total energy              =    -939.19633307 Ry
     estimated scf accuracy    <       0.00000005 Ry

     iteration #  8     ecut=    40.00 Ry     beta= 0.70
     Davidson diagonalization with overlap
     ethr =  6.74E-11,  avg # of iterations =  6.2

     negative rho (up, down):  4.359E-03 0.000E+00

     total cpu time spent up to now is      793.9 secs

     total energy              =    -939.19633308 Ry
     estimated scf accuracy    <          5.6E-09 Ry

     iteration #  9     ecut=    40.00 Ry     beta= 0.70
     Davidson diagonalization with overlap
     ethr =  7.01E-12,  avg # of iterations =  7.0
     Minimization algorithm failed to find Fermi energy: reverting to bisection
     Possible cause: smearing is larger than the electronic band-gap.

     negative rho (up, down):  4.359E-03 0.000E+00

     total cpu time spent up to now is      796.9 secs

     total energy              =    -939.19633309 Ry
     estimated scf accuracy    <       0.00000001 Ry

     iteration # 10     ecut=    40.00 Ry     beta= 0.70
     Davidson diagonalization with overlap
     ethr =  7.01E-12,  avg # of iterations =  2.0

     negative rho (up, down):  4.359E-03 0.000E+00

     total cpu time spent up to now is      798.9 secs

     total energy              =    -939.19633308 Ry
     estimated scf accuracy    <          4.3E-09 Ry

     iteration # 11     ecut=    40.00 Ry     beta= 0.70
     Davidson diagonalization with overlap
     ethr =  5.37E-12,  avg # of iterations =  3.5

     negative rho (up, down):  4.359E-03 0.000E+00

     total cpu time spent up to now is      801.0 secs

     total energy              =    -939.19633308 Ry
     estimated scf accuracy    <          1.2E-09 Ry

     iteration # 12     ecut=    40.00 Ry     beta= 0.70
     Davidson diagonalization with overlap
     ethr =  1.44E-12,  avg # of iterations =  6.8

     negative rho (up, down):  4.359E-03 0.000E+00

     total cpu time spent up to now is      803.6 secs

     total energy              =    -939.19633309 Ry
     estimated scf accuracy    <          2.0E-10 Ry

     iteration # 13     ecut=    40.00 Ry     beta= 0.70
     Davidson diagonalization with overlap
     ethr =  2.44E-13,  avg # of iterations =  5.0

     negative rho (up, down):  4.359E-03 0.000E+00

     total cpu time spent up to now is      806.1 secs

     total energy              =    -939.19633309 Ry
     estimated scf accuracy    <          1.6E-10 Ry

     iteration # 14     ecut=    40.00 Ry     beta= 0.70
     Davidson diagonalization with overlap
     ethr =  2.03E-13,  avg # of iterations =  2.0

     negative rho (up, down):  4.359E-03 0.000E+00

     total cpu time spent up to now is      808.2 secs

     End of self-consistent calculation

          k = 0.0000 0.0000 0.0000 (  8909 PWs)   bands (ev):

   -57.3991 -57.3616 -57.3356 -57.3084 -33.9708 -33.8695 -33.7609 -33.5955
   -33.5698 -33.5574 -33.5164 -33.5121 -33.4708 -33.4510 -33.4248 -33.3989
   -18.5986 -18.5171 -18.1072 -18.0877 -10.7092  -9.4445  -6.0625  -5.5612
    -5.2055  -4.7358  -4.7335  -4.3806  -4.3654  -4.3095  -4.1534  -4.1435
    -3.9457  -3.7880  -3.2131  -1.5533  -1.1975  -0.8463   0.0505   0.0661
     0.7257   1.2622   1.2855   1.7482   1.7719   1.9040   1.9755   2.5115

          k = 0.0000 0.5773 0.0000 (  8890 PWs)   bands (ev):

   -57.3680 -57.3360 -57.3342 -57.3077 -33.8703 -33.8126 -33.7227 -33.6915
   -33.6695 -33.6444 -33.6117 -33.5870 -33.5215 -33.5099 -33.5079 -33.4513
   -18.3160 -18.2774 -18.0865 -18.0766 -10.3235  -9.5407  -5.3887  -5.1870
    -5.1032  -4.9042  -4.6614  -4.6254  -4.3608  -4.2810  -4.1397  -4.0575
    -3.7616  -3.6589  -2.5045  -2.4752  -2.4175  -2.0927  -1.1195  -1.0547
     0.9266   1.3660   1.8015   2.0045   2.0939   2.1576   2.6266   2.7257

          k = 0.0000-1.1547 0.0000 (  8960 PWs)   bands (ev):

   -57.3375 -57.3353 -57.3074 -57.3068 -33.9501 -33.9492 -33.9060 -33.9040
   -33.5985 -33.5967 -33.5641 -33.5622 -33.5213 -33.5201 -33.4962 -33.4954
   -18.1114 -18.1011 -18.0739 -18.0666  -9.4426  -9.4411  -6.0594  -6.0585
    -5.2030  -5.2011  -4.2348  -4.2214  -4.1633  -4.1607  -3.9640  -3.9611
    -3.7354  -3.7288  -3.1739  -3.1695  -1.5549  -1.5543  -1.2255  -1.2211
     0.7173   0.7207   1.9031   1.9114   2.4675   2.4723   2.5720   2.5753

          k =-0.5000-0.2887 0.0000 (  8936 PWs)   bands (ev):

   -57.3686 -57.3667 -57.3351 -57.3347 -33.7396 -33.7383 -33.6944 -33.6932
   -33.6419 -33.6412 -33.5126 -33.5116 -33.5057 -33.5044 -33.4684 -33.4678
   -18.3196 -18.3106 -18.2920 -18.2827 -10.3254 -10.3197  -5.4034  -5.4009
    -4.9032  -4.9006  -4.6162  -4.6094  -4.4251  -4.4148  -4.1424  -4.1250
    -3.6678  -3.6658  -2.4786  -2.4733  -1.1112  -1.1075  -1.1033  -1.0984
     1.0088   1.0159   1.7867   1.7883   2.1552   2.1593   2.7305   2.7357

          k =-0.5000 0.2887 0.0000 (  8890 PWs)   bands (ev):

   -57.3680 -57.3360 -57.3342 -57.3077 -33.8667 -33.8151 -33.7231 -33.6907
   -33.6718 -33.6446 -33.6108 -33.5885 -33.5218 -33.5095 -33.5056 -33.4522
   -18.3146 -18.2775 -18.0877 -18.0764 -10.3236  -9.5416  -5.3867  -5.1838
    -5.1103  -4.9039  -4.6546  -4.6275  -4.3493  -4.2900  -4.1428  -4.0525
    -3.7735  -3.6580  -2.5004  -2.4743  -2.4244  -2.0851  -1.1219  -1.0497
     0.9136   1.3703   1.8028   2.0041   2.0878   2.1549   2.6310   2.7235

          k =-0.5000-1.4434 0.0000 (  8844 PWs)   bands (ev):

   -57.3374 -57.3353 -57.3073 -57.3068 -33.8665 -33.8640 -33.8220 -33.8211
   -33.6691 -33.6680 -33.6102 -33.6088 -33.5623 -33.5621 -33.5139 -33.5130
   -18.0988 -18.0887 -18.0661 -18.0585  -9.5369  -9.5356  -5.2216  -5.2189
    -5.0493  -5.0475  -4.6898  -4.6889  -4.2366  -4.2331  -4.0931  -4.0914
    -3.6807  -3.6789  -2.5180  -2.5104  -2.3886  -2.3840  -2.1443  -2.1433
     1.3502   1.3508   2.0059   2.0087   2.1650   2.1670   2.5934   2.5942

     the Fermi energy is     0.3054 ev

!    total energy              =    -939.19633309 Ry
     total all-electron energy =     -7585.803728 Ry
     estimated scf accuracy    <          2.4E-11 Ry
     smearing contrib. (-TS)   =       0.00067346 Ry
     internal energy E=F+TS    =    -939.19700654 Ry

     The total energy is F=E-TS. E is the sum of the following terms:
     one-electron contribution =   -4510.79860489 Ry
     hartree contribution      =    2263.19119745 Ry
     xc contribution           =    -113.20456577 Ry
     ewald contribution        =    1733.65339847 Ry
     one-center paw contrib.   =    -312.03843181 Ry

     convergence has been achieved in  14 iterations

     negative rho (up, down):  4.359E-03 0.000E+00

     Forces acting on atoms (cartesian axes, Ry/au):

     atom    1 type  1   force =    -0.00028559   -0.00013294    0.00000240
     atom    2 type  1   force =     0.00061902    0.00034576    0.00063326
     atom    3 type  2   force =    -0.00015452   -0.00006958   -0.00001747
     atom    4 type  3   force =    -0.00073847   -0.00045276    0.00034442
     atom    5 type  3   force =    -0.00020459   -0.00012022   -0.00075810
     atom    6 type  1   force =     0.00012401    0.00007662   -0.00003216
     atom    7 type  1   force =    -0.00024233   -0.00006215    0.00048582
     atom    8 type  2   force =     0.00067944    0.00035113    0.00013128
     atom    9 type  3   force =     0.00065444    0.00029485   -0.00057106
     atom   10 type  3   force =    -0.00045140   -0.00023069   -0.00021839

     Total force =     0.002145     Total SCF correction =     0.000025
     Energy error            =      1.0E-05 Ry
     Gradient error          =      7.6E-04 Ry/Bohr

     bfgs converged in  15 scf cycles and  14 bfgs steps
     (criteria: energy <  1.0E-04 Ry, force <  1.0E-03 Ry/Bohr)

     End of BFGS Geometry Optimization

     Final energy             =    -939.1963330852 Ry

     File ./tmp/slab.bfgs deleted, as requested
Begin final coordinates

ATOMIC_POSITIONS (angstrom)
Ti               0.0478137572        1.7808055831        8.3045992396
Ti               1.5555671317        0.9029994837       10.9151126035
C                2.9896848274       -0.0274663137        9.6095378882
O               -0.0178388879        1.7378601935       11.8199581119
O                1.4812266500        0.8544263437        7.3981582724
Ti               3.0796433013        1.7808286306        8.3035653529
Ti               4.5880595775        0.9027512500       10.9159999881
C                6.0192863689       -0.0285909521        9.6107663604
O                3.0107133560        1.7359241569       11.8230080984
O                4.5147242393        0.8551124896        7.3963309192
End final coordinates



     Writing all to output data dir ./tmp/slab.save/ :
     XML data file, charge density, pseudopotentials, collected wavefunctions

     init_run     :      1.66s CPU      1.75s WALL (       1 calls)
     electrons    :    751.75s CPU    781.32s WALL (      15 calls)
     update_pot   :      4.89s CPU      4.70s WALL (      14 calls)
     forces       :     12.68s CPU     12.68s WALL (      15 calls)

     Called by init_run:
     wfcinit      :      0.63s CPU      0.61s WALL (       1 calls)
     potinit      :      0.47s CPU      0.49s WALL (       1 calls)
     hinit0       :      0.38s CPU      0.38s WALL (       1 calls)

     Called by electrons:
     c_bands      :    542.69s CPU    553.71s WALL (     248 calls)
     sum_band     :     83.01s CPU     96.49s WALL (     248 calls)
     v_of_rho     :     10.51s CPU     10.34s WALL (     260 calls)
     newd         :     47.32s CPU     54.77s WALL (     260 calls)
     PAW_pot      :     76.88s CPU     74.80s WALL (     274 calls)
     mix_rho      :      1.74s CPU      1.67s WALL (     248 calls)

     Called by c_bands:
     init_us_2    :      4.35s CPU      4.15s WALL (    3156 calls)
     cegterg      :    533.15s CPU    542.68s WALL (    1488 calls)

     Called by *egterg:
     cdiaghg      :     36.26s CPU     36.24s WALL (   10262 calls)
     h_psi        :    229.68s CPU    236.24s WALL (   10370 calls)
     s_psi        :     51.16s CPU     50.60s WALL (   10370 calls)
     g_psi        :      0.55s CPU      0.52s WALL (    8876 calls)

     Called by h_psi:
     h_psi:calbec :     68.87s CPU     66.30s WALL (   10370 calls)
     vloc_psi     :    105.24s CPU    117.41s WALL (   10370 calls)
                                        0.00s GPU  (   10370 calls)
     add_vuspsi   :     54.45s CPU     51.51s WALL (   10370 calls)

     General routines
     calbec       :     96.82s CPU     97.23s WALL (   12302 calls)
     fft          :      8.19s CPU      8.10s WALL (    3532 calls)
     ffts         :      0.44s CPU      0.43s WALL (     508 calls)
     fftw         :    113.00s CPU    125.24s WALL (  496476 calls)
     interpolate  :      0.82s CPU      0.80s WALL (     260 calls)

     Parallel routines

     PWSCF        :  12m59.34s CPU  13m29.00s WALL


   This run was terminated on:  22: 9:37  18Sep2026            

=------------------------------------------------------------------------------=
   JOB DONE.
=------------------------------------------------------------------------------=
